AutoCreatByScript
 1.000000000
    6.36215693     0.00000000     0.00000000
    0.00000000     6.38448299     0.00000000
    0.00000000     0.00000000    22.02159841
    O   Ir
   32   16
Selective Dynamics
Direct
    0.089110000000    0.355460000000    0.000000000000    F   F   F
    0.589110000000    0.355460000000    0.000000000000    F   F   F
    0.339110000000    0.046930000000    0.055510000000    F   F   F
    0.839110000000    0.046930000000    0.055510000000    F   F   F
    0.339110000000    0.663990000000    0.055510000000    F   F   F
    0.839110000000    0.663990000000    0.055510000000    F   F   F
    0.089110000000    0.355460000000    0.111020000000    F   F   F
    0.589110000000    0.355460000000    0.111020000000    F   F   F
    0.589110000000    0.855460000000    0.144960000000    F   F   F
    0.089110000000    0.855460000000    0.144960000000    F   F   F
    0.339110000000    0.163990000000    0.200470000000    F   F   F
    0.839110000000    0.163990000000    0.200470000000    F   F   F
    0.339110000000    0.546930000000    0.200470000000    F   F   F
    0.839110000000    0.546930000000    0.200470000000    F   F   F
    0.089110000000    0.855460000000    0.255980000000    F   F   F
    0.589110000000    0.855460000000    0.255980000000    F   F   F
    0.089140000000    0.355420000000    0.289470000000    T   T   T
    0.589140000000    0.355420000000    0.289470000000    T   T   T
    0.339130000000    0.046700000000    0.345970000000    T   T   T
    0.839130000000    0.046700000000    0.345970000000    T   T   T
    0.339110000000    0.664180000000    0.345950000000    T   T   T
    0.839110000000    0.664180000000    0.345950000000    T   T   T
    0.089160000000    0.355710000000    0.399900000000    T   T   T
    0.589160000000    0.355710000000    0.399900000000    T   T   T
    0.089150000000    0.855490000000    0.436090000000    T   T   T
    0.589150000000    0.855490000000    0.436090000000    T   T   T
    0.339140000000    0.165380000000    0.494060000000    T   T   T
    0.839140000000    0.165380000000    0.494060000000    T   T   T
    0.339150000000    0.545560000000    0.494050000000    T   T   T
    0.839150000000    0.545560000000    0.494050000000    T   T   T
    0.089150000000    0.855480000000    0.546650000000    T   T   T
    0.589150000000    0.855480000000    0.546650000000    T   T   T
    0.339110000000    0.355460000000    0.055510000000    F   F   F
    0.839110000000    0.355460000000    0.055510000000    F   F   F
    0.089110000000    0.855460000000    0.055510000000    F   F   F
    0.589110000000    0.855460000000    0.055510000000    F   F   F
    0.089110000000    0.355460000000    0.200470000000    F   F   F
    0.589110000000    0.355460000000    0.200470000000    F   F   F
    0.339110000000    0.855460000000    0.200470000000    F   F   F
    0.839110000000    0.855460000000    0.200470000000    F   F   F
    0.839140000000    0.355430000000    0.344880000000    T   T   T
    0.339140000000    0.355430000000    0.344880000000    T   T   T
    0.089110000000    0.855430000000    0.346340000000    T   T   T
    0.589110000000    0.855430000000    0.346340000000    T   T   T
    0.089130000000    0.355450000000    0.488110000000    T   T   T
    0.589130000000    0.355450000000    0.488110000000    T   T   T
    0.339150000000    0.855450000000    0.492880000000    T   T   T
    0.839150000000    0.855450000000    0.492880000000    T   T   T
