AutoCreatByScript                       
   1.00000000000000     
     6.3621569300000003    0.0000000000000000    0.0000000000000000
     0.0000000000000000    6.3844829900000004    0.0000000000000000
     0.0000000000000000    0.0000000000000000   22.0215984099999993
   H    C    O    Ru   Ir
     4     1    32     1    15
Selective dynamics
Direct
  0.5801435964485168  0.1765279612340371  0.5987482056104858   T   T   T
  0.5882653791356436  0.5441440870626643  0.5543926249381862   T   T   T
  0.7283885342599774  0.4053260867493120  0.6182374514883107   T   T   T
  0.4462100254698923  0.4139454497224335  0.6178813914680548   T   T   T
  0.5858289355430862  0.3484611578214020  0.5953937360828806   T   T   T
  0.0891099999999980  0.3554600000000008  0.9999999999999998   F   F   F
  0.5891099999999980  0.3554600000000008  0.9999999999999998   F   F   F
  0.3391099999999980  1.0469300000000032  1.0555099999999982   F   F   F
  0.8391099999999979  1.0469300000000032  1.0555099999999982   F   F   F
  0.3391099999999980  0.6639899999999983  1.0555099999999982   F   F   F
  0.8391099999999979  0.6639899999999983  1.0555099999999982   F   F   F
  0.0891099999999980  0.3554600000000008  0.1110200000000034   F   F   F
  0.5891099999999980  0.3554600000000008  0.1110200000000034   F   F   F
  0.0891099999999980  0.8554600000000008  0.1449599999999975   F   F   F
  0.5891099999999980  0.8554600000000008  0.1449599999999975   F   F   F
  0.3391099999999980  0.1639899999999983  0.2004700000000028   F   F   F
  0.8391099999999979  0.1639899999999983  0.2004700000000028   F   F   F
  0.3391099999999980  0.5469300000000032  0.2004700000000028   F   F   F
  0.8391099999999979  0.5469300000000032  0.2004700000000028   F   F   F
  0.0891099999999980  0.8554600000000008  0.2559800000000010   F   F   F
  0.5891099999999980  0.8554600000000008  0.2559800000000010   F   F   F
  0.0888861579626142  0.3560545321744064  0.2899066991102511   T   T   T
  0.5886466088253660  0.3546372802763982  0.2897916843064509   T   T   T
  0.3390125350253914  1.0441687006618552  0.3457123826029856   T   T   T
  0.8383796654158846  1.0441609767135767  0.3455399244751055   T   T   T
  0.3391991489123000  0.6612876674388307  0.3462695102947487   T   T   T
  0.8381292016485635  0.6612774720219695  0.3461818240810016   T   T   T
  0.0880808666915189  0.3511537189380715  0.3994059125270874   T   T   T
  0.5889400127298706  0.3429823245323477  0.4016762764215906   T   T   T
  1.0851580906806284  0.8628351537125151  0.4355750775824572   T   T   T
  0.5919097036255138  0.8543305329915876  0.4361873382746124   T   T   T
  0.3372062814371486  0.1575127040140579  0.4979422919380471   T   T   T
  0.8388500041779436  0.1576228500655507  0.4984583802969302   T   T   T
  0.8439782456871164  0.5406528747882352  0.4887487019073421   T   T   T
  0.3328029681880254  0.5399557947447287  0.4879162405581947   T   T   T
  1.0850202848098942  0.8364718113571821  0.5448642976625303   T   T   T
  0.5911027937352601  0.7962786028654558  0.5468675733538110   T   T   T
  0.8400911988195221  0.8458795448568066  0.4938686710078825   T   T   T
  0.3391099999999980  0.3554600000000008  1.0555099999999982   F   F   F
  0.8391099999999979  0.3554600000000008  1.0555099999999982   F   F   F
  0.0891099999999980  0.8554600000000008  1.0555099999999982   F   F   F
  0.5891099999999980  0.8554600000000008  1.0555099999999982   F   F   F
  0.0891099999999980  0.3554600000000008  0.2004700000000028   F   F   F
  0.5891099999999980  0.3554600000000008  0.2004700000000028   F   F   F
  0.3391099999999980  0.8554600000000008  0.2004700000000028   F   F   F
  0.8391099999999979  0.8554600000000008  0.2004700000000028   F   F   F
  0.8363845549330827  0.3521273810985691  0.3453865085062693   T   T   T
  0.3408304484917773  0.3521209667119415  0.3455337603297187   T   T   T
  0.0886628492123561  0.8533862487391025  0.3463892394005901   T   T   T
  0.5886477513898150  0.8531703328639889  0.3466786014561796   T   T   T
  1.0874092049348603  0.3450454353150492  0.4873829286559779   T   T   T
  0.5889975132470997  0.3566372222769724  0.4958130434489226   T   T   T
  0.3377103528543448  0.8461403816647074  0.4919824621195614   T   T   T
 
  0.00000000E+00  0.00000000E+00  0.00000000E+00
  0.00000000E+00  0.00000000E+00  0.00000000E+00
  0.00000000E+00  0.00000000E+00  0.00000000E+00
  0.00000000E+00  0.00000000E+00  0.00000000E+00
  0.00000000E+00  0.00000000E+00  0.00000000E+00
  0.00000000E+00  0.00000000E+00  0.00000000E+00
  0.00000000E+00  0.00000000E+00  0.00000000E+00
  0.00000000E+00  0.00000000E+00  0.00000000E+00
  0.00000000E+00  0.00000000E+00  0.00000000E+00
  0.00000000E+00  0.00000000E+00  0.00000000E+00
  0.00000000E+00  0.00000000E+00  0.00000000E+00
  0.00000000E+00  0.00000000E+00  0.00000000E+00
  0.00000000E+00  0.00000000E+00  0.00000000E+00
  0.00000000E+00  0.00000000E+00  0.00000000E+00
  0.00000000E+00  0.00000000E+00  0.00000000E+00
  0.00000000E+00  0.00000000E+00  0.00000000E+00
  0.00000000E+00  0.00000000E+00  0.00000000E+00
  0.00000000E+00  0.00000000E+00  0.00000000E+00
  0.00000000E+00  0.00000000E+00  0.00000000E+00
  0.00000000E+00  0.00000000E+00  0.00000000E+00
  0.00000000E+00  0.00000000E+00  0.00000000E+00
  0.00000000E+00  0.00000000E+00  0.00000000E+00
  0.00000000E+00  0.00000000E+00  0.00000000E+00
  0.00000000E+00  0.00000000E+00  0.00000000E+00
  0.00000000E+00  0.00000000E+00  0.00000000E+00
  0.00000000E+00  0.00000000E+00  0.00000000E+00
  0.00000000E+00  0.00000000E+00  0.00000000E+00
  0.00000000E+00  0.00000000E+00  0.00000000E+00
  0.00000000E+00  0.00000000E+00  0.00000000E+00
  0.00000000E+00  0.00000000E+00  0.00000000E+00
  0.00000000E+00  0.00000000E+00  0.00000000E+00
  0.00000000E+00  0.00000000E+00  0.00000000E+00
  0.00000000E+00  0.00000000E+00  0.00000000E+00
  0.00000000E+00  0.00000000E+00  0.00000000E+00
  0.00000000E+00  0.00000000E+00  0.00000000E+00
  0.00000000E+00  0.00000000E+00  0.00000000E+00
  0.00000000E+00  0.00000000E+00  0.00000000E+00
  0.00000000E+00  0.00000000E+00  0.00000000E+00
  0.00000000E+00  0.00000000E+00  0.00000000E+00
  0.00000000E+00  0.00000000E+00  0.00000000E+00
  0.00000000E+00  0.00000000E+00  0.00000000E+00
  0.00000000E+00  0.00000000E+00  0.00000000E+00
  0.00000000E+00  0.00000000E+00  0.00000000E+00
  0.00000000E+00  0.00000000E+00  0.00000000E+00
  0.00000000E+00  0.00000000E+00  0.00000000E+00
  0.00000000E+00  0.00000000E+00  0.00000000E+00
  0.00000000E+00  0.00000000E+00  0.00000000E+00
  0.00000000E+00  0.00000000E+00  0.00000000E+00
  0.00000000E+00  0.00000000E+00  0.00000000E+00
  0.00000000E+00  0.00000000E+00  0.00000000E+00
  0.00000000E+00  0.00000000E+00  0.00000000E+00
  0.00000000E+00  0.00000000E+00  0.00000000E+00
  0.00000000E+00  0.00000000E+00  0.00000000E+00
