AutoCreatByScript                       
   1.00000000000000     
     0.0000000000000000    0.0000000000000000    6.2235823699999999
     4.4962942799999999   -4.4962942799999999    0.0000000000000000
    15.5620497800000006   15.5620497800000006    0.0000000000000000
   O    Ru
    32    16
Selective dynamics
Direct
  0.3391118943689975  0.0792431933270024  0.0561153760000010   F   F   F
  0.8391118943689975  0.0792431933270024  0.0561153760000010   F   F   F
  0.3391118943689975  0.4676831933269980  0.0561153760000010   F   F   F
  0.8391118943689975  0.4676831933269980  0.0561153760000010   F   F   F
  0.0891118943689975  0.7734631933269966  0.1122307520000021   F   F   F
  0.5891118943689975  0.7734631933269966  0.1122307520000021   F   F   F
  0.0891118943689975  0.2734631933269966  0.1444634332199968   F   F   F
  0.5891118943689975  0.2734631933269966  0.1444634332199968   F   F   F
  0.3391118943689975  0.5792431933270024  0.2005788092199978   F   F   F
  0.8391118943689975  0.5792431933270024  0.2005788092199978   F   F   F
  0.3391118943689975  0.9676831933269980  0.2005788092199978   F   F   F
  0.8391118943689975  0.9676831933269980  0.2005788092199978   F   F   F
  0.0891118943689975  0.2734631933269966  0.2566941852199989   F   F   F
  0.5891118943689975  0.2734631933269966  0.2566941852199989   F   F   F
  0.0890815079233511  0.7734687521790105  0.2882065731628189   T   T   T
  0.5890816150137295  0.7734733993421977  0.2882070662073012   T   T   T
  0.3390554596072582  0.0797300551939076  0.3453796186271268   T   T   T
  0.8390611339342906  0.0797287210038594  0.3453797612694560   T   T   T
  0.3390768452943189  0.4670918214877646  0.3453642151514316   T   T   T
  0.8390814136108961  0.4670934569704882  0.3453641522228756   T   T   T
  0.0890871796456306  0.7735097147170468  0.3994245543106407   T   T   T
  0.5890832849496702  0.7735090265135840  0.3994246296613788   T   T   T
  0.0890729315016782  0.2734897742751254  0.4344028941090862   T   T   T
  0.5890740916120455  0.2734895724635215  0.4344028649800237   T   T   T
  0.3391221775906585  0.5836743553568482  0.4919026492581848   T   T   T
  0.8391272568549601  0.5836748651351057  0.4919024778386518   T   T   T
  0.3391076516164777  0.9633554692621462  0.4919388960240169   T   T   T
  0.8391122798070051  0.9633543734839419  0.4919388290430914   T   T   T
  0.0890819127771992  0.2736078463237080  0.5440591978820293   T   T   T
  0.5890815140190011  0.2736074765251900  0.5440601243278784   T   T   T
  0.0891118943689975  0.7734631933269966  0.0000000000000000   F   F   F
  0.5891118943689975  0.7734631933269966  0.0000000000000000   F   F   F
  0.0891118943689975  0.2734631933269966  0.0561153760000010   F   F   F
  0.5891118943689975  0.2734631933269966  0.0561153760000010   F   F   F
  0.3391118943689975  0.7734631933269966  0.0561153760000010   F   F   F
  0.8391118943689975  0.7734631933269966  0.0561153760000010   F   F   F
  0.3391118943689975  0.2734631933269966  0.2005788092199978   F   F   F
  0.8391118943689975  0.2734631933269966  0.2005788092199978   F   F   F
  0.0891118943689975  0.7734631933269966  0.2005788092199978   F   F   F
  0.5891118943689975  0.7734631933269966  0.2005788092199978   F   F   F
  0.0890589604522299  0.2734228831060560  0.3460115433575100   T   T   T
  0.5890448224015491  0.2734257822485077  0.3460116195835240   T   T   T
  0.3390669510397247  0.7734266486875674  0.3439612586474263   T   T   T
  0.8390539397305555  0.7734275584491018  0.3439620838208693   T   T   T
  0.3390755237065139  0.2735178473027085  0.4939759399476814   T   T   T
  0.8390848599589840  0.2735168048474509  0.4939765032493162   T   T   T
  0.0891354194939001  0.7734976650679429  0.4847558519111617   T   T   T
  0.5891355653080016  0.7734977499301827  0.4847535576673055   T   T   T
 
  0.00000000E+00  0.00000000E+00  0.00000000E+00
  0.00000000E+00  0.00000000E+00  0.00000000E+00
  0.00000000E+00  0.00000000E+00  0.00000000E+00
  0.00000000E+00  0.00000000E+00  0.00000000E+00
  0.00000000E+00  0.00000000E+00  0.00000000E+00
  0.00000000E+00  0.00000000E+00  0.00000000E+00
  0.00000000E+00  0.00000000E+00  0.00000000E+00
  0.00000000E+00  0.00000000E+00  0.00000000E+00
  0.00000000E+00  0.00000000E+00  0.00000000E+00
  0.00000000E+00  0.00000000E+00  0.00000000E+00
  0.00000000E+00  0.00000000E+00  0.00000000E+00
  0.00000000E+00  0.00000000E+00  0.00000000E+00
  0.00000000E+00  0.00000000E+00  0.00000000E+00
  0.00000000E+00  0.00000000E+00  0.00000000E+00
  0.00000000E+00  0.00000000E+00  0.00000000E+00
  0.00000000E+00  0.00000000E+00  0.00000000E+00
  0.00000000E+00  0.00000000E+00  0.00000000E+00
  0.00000000E+00  0.00000000E+00  0.00000000E+00
  0.00000000E+00  0.00000000E+00  0.00000000E+00
  0.00000000E+00  0.00000000E+00  0.00000000E+00
  0.00000000E+00  0.00000000E+00  0.00000000E+00
  0.00000000E+00  0.00000000E+00  0.00000000E+00
  0.00000000E+00  0.00000000E+00  0.00000000E+00
  0.00000000E+00  0.00000000E+00  0.00000000E+00
  0.00000000E+00  0.00000000E+00  0.00000000E+00
  0.00000000E+00  0.00000000E+00  0.00000000E+00
  0.00000000E+00  0.00000000E+00  0.00000000E+00
  0.00000000E+00  0.00000000E+00  0.00000000E+00
  0.00000000E+00  0.00000000E+00  0.00000000E+00
  0.00000000E+00  0.00000000E+00  0.00000000E+00
  0.00000000E+00  0.00000000E+00  0.00000000E+00
  0.00000000E+00  0.00000000E+00  0.00000000E+00
  0.00000000E+00  0.00000000E+00  0.00000000E+00
  0.00000000E+00  0.00000000E+00  0.00000000E+00
  0.00000000E+00  0.00000000E+00  0.00000000E+00
  0.00000000E+00  0.00000000E+00  0.00000000E+00
  0.00000000E+00  0.00000000E+00  0.00000000E+00
  0.00000000E+00  0.00000000E+00  0.00000000E+00
  0.00000000E+00  0.00000000E+00  0.00000000E+00
  0.00000000E+00  0.00000000E+00  0.00000000E+00
  0.00000000E+00  0.00000000E+00  0.00000000E+00
  0.00000000E+00  0.00000000E+00  0.00000000E+00
  0.00000000E+00  0.00000000E+00  0.00000000E+00
  0.00000000E+00  0.00000000E+00  0.00000000E+00
  0.00000000E+00  0.00000000E+00  0.00000000E+00
  0.00000000E+00  0.00000000E+00  0.00000000E+00
  0.00000000E+00  0.00000000E+00  0.00000000E+00
  0.00000000E+00  0.00000000E+00  0.00000000E+00
