AutoCreatByScript                       
   1.00000000000000     
     6.3621569300000003    0.0000000000000000    0.0000000000000000
     0.0000000000000000    6.3844829900000004    0.0000000000000000
     0.0000000000000000    0.0000000000000000   22.0215984099999993
    H    C   O    Ru   Ir
    3    1    32     1    15
Selective dynamics
Direct
  0.4275524324132437  0.4273708074288867  0.6043764087475084   T   T   T
  0.7065416984266363  0.448571474856833  0.607537158261388   T   T   T
  0.5757753123041196  0.3546416050953361  0.5898707284108468   T   T   T
  0.5846828762668761  0.1925734122114778  0.6062930829869076   T   T   T
  0.0891099999999980  0.3554600000000008  0.0000000000000000   F   F   F
  0.5891099999999980  0.3554600000000008  0.0000000000000000   F   F   F
  0.3391099999999980  0.0469300000000032  0.0555099999999982   F   F   F
  0.8391099999999980  0.0469300000000032  0.0555099999999982   F   F   F
  0.3391099999999980  0.6639899999999983  0.0555099999999982   F   F   F
  0.8391099999999980  0.6639899999999983  0.0555099999999982   F   F   F
  0.0891099999999980  0.3554600000000008  0.1110200000000034   F   F   F
  0.5891099999999980  0.3554600000000008  0.1110200000000034   F   F   F
  0.5891099999999980  0.8554600000000008  0.1449599999999975   F   F   F
  0.0891099999999980  0.8554600000000008  0.1449599999999975   F   F   F
  0.3391099999999980  0.1639899999999983  0.2004700000000028   F   F   F
  0.8391099999999980  0.1639899999999983  0.2004700000000028   F   F   F
  0.3391099999999980  0.5469300000000032  0.2004700000000028   F   F   F
  0.8391099999999980  0.5469300000000032  0.2004700000000028   F   F   F
  0.0891099999999980  0.8554600000000008  0.2559800000000010   F   F   F
  0.5891099999999980  0.8554600000000008  0.2559800000000010   F   F   F
  0.0891541713352491  0.3553787090435356  0.2895409578314251   T   T   T
  0.5891609519016068  0.3553777081592244  0.2895407733004179   T   T   T
  0.3391459621561523  0.0466905512476652  0.3462191462172800   T   T   T
  0.8391469503880333  0.0467065668164812  0.3461825314217689   T   T   T
  0.3391451571936045  0.6642176073712144  0.3461776840104050   T   T   T
  0.8391447752535059  0.6641998636196658  0.3461411187288426   T   T   T
  0.0889820070655190  0.3558154388421298  0.4000282874906860   T   T   T
  0.5893597241655449  0.3558328625427533  0.4000280800165445   T   T   T
  0.0847858478848797  0.8554976430140429  0.4359225596854256   T   T   T
  0.5934953042576290  0.8554971746992204  0.4359409201003094   T   T   T
  0.3391399167588363  0.1655150590538278  0.4940721988373810   T   T   T
  0.8391558679195993  0.1662634687441463  0.4947328824416353   T   T   T
  0.3391493243541547  0.5453644792498616  0.4940769073981051   T   T   T
  0.8391530828902269  0.5446419313844840  0.4947433893506654   T   T   T
  0.0839477621506011  0.8554827380576547  0.5450906578578437   T   T   T
  0.5943253503623114  0.8555103604526670  0.5450588521710882   T   T   T
  0.8391603306442665  0.8554378131056427  0.4951192409789811   T   T   T
  0.3391099999999980  0.3554600000000008  0.0555099999999982   F   F   F
  0.8391099999999980  0.3554600000000008  0.0555099999999982   F   F   F
  0.0891099999999980  0.8554600000000008  0.0555099999999982   F   F   F
  0.5891099999999980  0.8554600000000008  0.0555099999999982   F   F   F
  0.0891099999999980  0.3554600000000008  0.2004700000000028   F   F   F
  0.5891099999999980  0.3554600000000008  0.2004700000000028   F   F   F
  0.3391099999999980  0.8554600000000008  0.2004700000000028   F   F   F
  0.8391099999999980  0.8554600000000008  0.2004700000000028   F   F   F
  0.8391567872690660  0.3554348933919994  0.3449574184480439   T   T   T
  0.3391556559309327  0.3554364846333949  0.3450240275512441   T   T   T
  0.0890085218723367  0.8554433354952685  0.3464915465437020   T   T   T
  0.5892573573598426  0.8554411774273619  0.3464989512570274   T   T   T
  0.0885744711083509  0.3554179135983858  0.4883306956659821   T   T   T
  0.5896988973726307  0.3554182910646684  0.4883310251105150   T   T   T
  0.3391287039481674  0.8554338090956805  0.4919573885756894   T   T   T
 
