AutoCreatByScript                       
   1.00000000000000     
     0.0000000000000000    0.0000000000000000    6.8612265099999998
     4.9677373899999999   -4.9677373899999999    0.0000000000000000
    16.4368424699999984   16.4368424699999984    0.0000000000000000
   O    Pb
    32    16
Selective dynamics
Direct
  0.3659148812290027  0.0548014640810024  0.0000000000000000   F   F   F
  0.8659148812290027  0.0548014640810024  0.0000000000000000   F   F   F
  0.1159148812290027  0.3621414640809988  0.0582279891910034   F   F   F
  0.6159148812290027  0.3621414640809988  0.0582279891910034   F   F   F
  0.1159148812290027  0.7474614640809989  0.0582279891910034   F   F   F
  0.6159148812290027  0.7474614640809989  0.0582279891910034   F   F   F
  0.3659148812290027  0.0548014640810024  0.1164559783819996   F   F   F
  0.8659148812290027  0.0548014640810024  0.1164559783819996   F   F   F
  0.3659148812290027  0.5548014640810024  0.1511159275169973   F   F   F
  0.8659148812290027  0.5548014640810024  0.1511159275169973   F   F   F
  0.1159148812290027  0.2474614640809989  0.2093439167080007   F   F   F
  0.6159148812290027  0.2474614640809989  0.2093439167080007   F   F   F
  0.1159148812290027  0.8621414640809988  0.2093439167080007   F   F   F
  0.6159148812290027  0.8621414640809988  0.2093439167080007   F   F   F
  0.3659148812290027  0.5548014640810024  0.2675719058989969   F   F   F
  0.8659148812290027  0.5548014640810024  0.2675719058989969   F   F   F
  0.3660833788744191  0.0545747148326504  0.3031765794095909   T   T   T
  0.8660524626530187  0.0545804983494626  0.3031635146501653   T   T   T
  0.1160222836843773  0.3610799438689473  0.3629629854353983   T   T   T
  0.6160606341230003  0.3610884431768782  0.3629664457122176   T   T   T
  0.1160275499664894  0.7487777136978653  0.3629973174962227   T   T   T
  0.6160653168474364  0.7487803568485644  0.3629985824515193   T   T   T
  0.3661695098460991  0.0548006066371650  0.4216073705613792   T   T   T
  0.8661913714311306  0.0547993963545173  0.4216103332435497   T   T   T
  0.3659636673307432  0.5545733113870471  0.4579518512519289   T   T   T
  0.8659833462603346  0.5546172920188582  0.4579864285525019   T   T   T
  0.1162602544043485  0.2405075875717377  0.5296016714127734   T   T   T
  0.6162997544809757  0.2404930345636597  0.5296039674462589   T   T   T
  0.1162613621508816  0.8688177014562981  0.5296221258766998   T   T   T
  0.6162745409364415  0.8688102547778073  0.5296185200011069   T   T   T
  0.3662106296274119  0.5545932107455482  0.5776345645138420   T   T   T
  0.8662049499341672  0.5546138536465091  0.5776313036829754   T   T   T
  0.1159148812290027  0.0548014640810024  0.0582279891910034   F   F   F
  0.6159148812290027  0.0548014640810024  0.0582279891910034   F   F   F
  0.3659148812290027  0.5548014640810024  0.0582279891910034   F   F   F
  0.8659148812290027  0.5548014640810024  0.0582279891910034   F   F   F
  0.3659148812290027  0.0548014640810024  0.2093439167080007   F   F   F
  0.8659148812290027  0.0548014640810024  0.2093439167080007   F   F   F
  0.1159148812290027  0.5548014640810024  0.2093439167080007   F   F   F
  0.6159148812290027  0.5548014640810024  0.2093439167080007   F   F   F
  0.1162477639041029  0.0549610535988413  0.3606753559972578   T   T   T
  0.6160666364212913  0.0549472553982561  0.3606807438290480   T   T   T
  0.3660099359379535  0.5549576701416021  0.3634702052741506   T   T   T
  0.8660146869079538  0.5549624006682652  0.3634772149713132   T   T   T
  0.3662418592588396  0.0547250616436558  0.5135192031937551   T   T   T
  0.8662418278370868  0.0547007008375049  0.5135155011596627   T   T   T
  0.1159903785861394  0.5546661418277966  0.5215149285380335   T   T   T
  0.6163206919824068  0.5546732699581021  0.5215052287257672   T   T   T
 
  0.00000000E+00  0.00000000E+00  0.00000000E+00
  0.00000000E+00  0.00000000E+00  0.00000000E+00
  0.00000000E+00  0.00000000E+00  0.00000000E+00
  0.00000000E+00  0.00000000E+00  0.00000000E+00
  0.00000000E+00  0.00000000E+00  0.00000000E+00
  0.00000000E+00  0.00000000E+00  0.00000000E+00
  0.00000000E+00  0.00000000E+00  0.00000000E+00
  0.00000000E+00  0.00000000E+00  0.00000000E+00
  0.00000000E+00  0.00000000E+00  0.00000000E+00
  0.00000000E+00  0.00000000E+00  0.00000000E+00
  0.00000000E+00  0.00000000E+00  0.00000000E+00
  0.00000000E+00  0.00000000E+00  0.00000000E+00
  0.00000000E+00  0.00000000E+00  0.00000000E+00
  0.00000000E+00  0.00000000E+00  0.00000000E+00
  0.00000000E+00  0.00000000E+00  0.00000000E+00
  0.00000000E+00  0.00000000E+00  0.00000000E+00
  0.00000000E+00  0.00000000E+00  0.00000000E+00
  0.00000000E+00  0.00000000E+00  0.00000000E+00
  0.00000000E+00  0.00000000E+00  0.00000000E+00
  0.00000000E+00  0.00000000E+00  0.00000000E+00
  0.00000000E+00  0.00000000E+00  0.00000000E+00
  0.00000000E+00  0.00000000E+00  0.00000000E+00
  0.00000000E+00  0.00000000E+00  0.00000000E+00
  0.00000000E+00  0.00000000E+00  0.00000000E+00
  0.00000000E+00  0.00000000E+00  0.00000000E+00
  0.00000000E+00  0.00000000E+00  0.00000000E+00
  0.00000000E+00  0.00000000E+00  0.00000000E+00
  0.00000000E+00  0.00000000E+00  0.00000000E+00
  0.00000000E+00  0.00000000E+00  0.00000000E+00
  0.00000000E+00  0.00000000E+00  0.00000000E+00
  0.00000000E+00  0.00000000E+00  0.00000000E+00
  0.00000000E+00  0.00000000E+00  0.00000000E+00
  0.00000000E+00  0.00000000E+00  0.00000000E+00
  0.00000000E+00  0.00000000E+00  0.00000000E+00
  0.00000000E+00  0.00000000E+00  0.00000000E+00
  0.00000000E+00  0.00000000E+00  0.00000000E+00
  0.00000000E+00  0.00000000E+00  0.00000000E+00
  0.00000000E+00  0.00000000E+00  0.00000000E+00
  0.00000000E+00  0.00000000E+00  0.00000000E+00
  0.00000000E+00  0.00000000E+00  0.00000000E+00
  0.00000000E+00  0.00000000E+00  0.00000000E+00
  0.00000000E+00  0.00000000E+00  0.00000000E+00
  0.00000000E+00  0.00000000E+00  0.00000000E+00
  0.00000000E+00  0.00000000E+00  0.00000000E+00
  0.00000000E+00  0.00000000E+00  0.00000000E+00
  0.00000000E+00  0.00000000E+00  0.00000000E+00
  0.00000000E+00  0.00000000E+00  0.00000000E+00
  0.00000000E+00  0.00000000E+00  0.00000000E+00
