AutoCreatByScript
 1.000000000
    0.00000000     0.00000000     5.92135997
    4.62995342    -4.62995342     0.00000000
   15.82936550    15.82936550     0.00000000
    O   Ti
   32   16
Selective Dynamics
Direct
    0.089111894369    0.773463197984    0.000000000000    F   F   F
    0.589111894369    0.773463197984    0.000000000000    F   F   F
    0.339111894369    0.077633197984    0.057278592664    F   F   F
    0.839111894369    0.077633197984    0.057278592664    F   F   F
    0.339111894369    0.469293197984    0.057278592664    F   F   F
    0.839111894369    0.469293197984    0.057278592664    F   F   F
    0.089111894369    0.773463197984    0.114557185327    F   F   F
    0.589111894369    0.773463197984    0.114557185327    F   F   F
    0.089111894369    0.273463197984    0.146245704600    F   F   F
    0.589111894369    0.273463197984    0.146245704600    F   F   F
    0.339111894369    0.577633197984    0.203524297263    F   F   F
    0.839111894369    0.577633197984    0.203524297263    F   F   F
    0.339111894369    0.969293197984    0.203524297263    F   F   F
    0.839111894369    0.969293197984    0.203524297263    F   F   F
    0.089111894369    0.273463197984    0.260802889927    F   F   F
    0.589111894369    0.273463197984    0.260802889927    F   F   F
    0.089111894369    0.773463197984    0.292491409199    T   T   T
    0.589111894369    0.773463197984    0.292491409199    T   T   T
    0.339111894369    0.077633197984    0.349770001863    T   T   T
    0.839111894369    0.077633197984    0.349770001863    T   T   T
    0.339111894369    0.469293197984    0.349770001863    T   T   T
    0.839111894369    0.469293197984    0.349770001863    T   T   T
    0.089111894369    0.773463197984    0.407048594526    T   T   T
    0.589111894369    0.773463197984    0.407048594526    T   T   T
    0.089111894369    0.273463197984    0.438737113799    T   T   T
    0.589111894369    0.273463197984    0.438737113799    T   T   T
    0.339111894369    0.577633197984    0.496015706463    T   T   T
    0.839111894369    0.577633197984    0.496015706463    T   T   T
    0.339111894369    0.969293197984    0.496015706463    T   T   T
    0.839111894369    0.969293197984    0.496015706463    T   T   T
    0.089111894369    0.273463197984    0.553294299126    T   T   T
    0.589111894369    0.273463197984    0.553294299126    T   T   T
    0.089111894369    0.273463197984    0.057278592664    F   F   F
    0.589111894369    0.273463197984    0.057278592664    F   F   F
    0.339111894369    0.773463197984    0.057278592664    F   F   F
    0.839111894369    0.773463197984    0.057278592664    F   F   F
    0.339111894369    0.273463197984    0.203524297263    F   F   F
    0.839111894369    0.273463197984    0.203524297263    F   F   F
    0.089111894369    0.773463197984    0.203524297263    F   F   F
    0.589111894369    0.773463197984    0.203524297263    F   F   F
    0.089111894369    0.273463197984    0.349770001863    T   T   T
    0.589111894369    0.273463197984    0.349770001863    T   T   T
    0.339111894369    0.773463197984    0.349770001863    T   T   T
    0.839111894369    0.773463197984    0.349770001863    T   T   T
    0.339111894369    0.273463197984    0.496015706463    T   T   T
    0.839111894369    0.273463197984    0.496015706463    T   T   T
    0.089111894369    0.773463197984    0.496015706463    T   T   T
    0.589111894369    0.773463197984    0.496015706463    T   T   T
