AutoCreatByScript                       
   1.00000000000000     
     0.0000000000000000    0.0000000000000000    5.4598277499999996
     4.9380759500000000   -4.9380759500000000    0.0000000000000000
    16.6264422900000000   16.6264422900000000    0.0000000000000000
   O    Mo
    32    16
Selective dynamics
Direct
  0.1308116614819994  0.5696980953220034  0.0000000000000000   F   F   F
  0.6308116614819994  0.5696980953220034  0.0000000000000000   F   F   F
  0.3808116614819994  0.2872180953219967  0.0646037354850009   F   F   F
  0.8808116614819994  0.2872180953219967  0.0646037354850009   F   F   F
  0.3808116614819994  0.8521780953220031  0.0646037354850009   F   F   F
  0.8808116614819994  0.8521780953220031  0.0646037354850009   F   F   F
  0.1308116614819994  0.5696980953220034  0.1292074709700017   F   F   F
  0.6308116614819994  0.5696980953220034  0.1292074709700017   F   F   F
  0.1308116614819994  0.0696980953220034  0.1485006792140027   F   F   F
  0.6308116614819994  0.0696980953220034  0.1485006792140027   F   F   F
  0.3808116614819994  0.3521780953220031  0.2131044146990035   F   F   F
  0.8808116614819994  0.3521780953220031  0.2131044146990035   F   F   F
  0.3808116614819994  0.7872180953219967  0.2131044146990035   F   F   F
  0.8808116614819994  0.7872180953219967  0.2131044146990035   F   F   F
  0.1308116614819994  0.0696980953220034  0.2777081501839973   F   F   F
  0.6308116614819994  0.0696980953220034  0.2777081501839973   F   F   F
  0.1301888132227078  0.5697902699696279  0.2996262415089815   T   T   T
  0.6302493621936006  0.5697769831802054  0.2950521216253136   T   T   T
  0.3762401754193849  0.2927714838137549  0.3627578752274299   T   T   T
  0.8738348713872268  0.2788172576081131  0.3627027455865441   T   T   T
  0.3762062806013917  0.8467786189786184  0.3627823361673604   T   T   T
  0.8738059649270118  0.8607319897825485  0.3627490327532396   T   T   T
  0.1233475086570013  0.5697182917298862  0.4224311966991384   T   T   T
  0.6373584870211928  0.5697777047264464  0.4270666162726479   T   T   T
  0.1386518159656022  0.0699218070151814  0.4503576846382180   T   T   T
  0.6241362006499570  0.0698134181299505  0.4468953188973878   T   T   T
  0.3881940106893428  0.3716675816694400  0.5153231542386935   T   T   T
  0.8875916747478296  0.3483240011399152  0.5117505930487893   T   T   T
  0.3882125887726544  0.7679171218736343  0.5152121514978004   T   T   T
  0.8875876016507164  0.7911697090285230  0.5117701418175717   T   T   T
  0.1322547047521787  0.0696097230758742  0.5700652748393673   T   T   T
  0.6273423723153202  0.0697462908943931  0.5789887768161101   T   T   T
  0.1308116614819994  0.0696980953220034  0.0646037354850009   F   F   F
  0.6308116614819994  0.0696980953220034  0.0646037354850009   F   F   F
  0.3808116614819994  0.5696980953220034  0.0646037354850009   F   F   F
  0.8808116614819994  0.5696980953220034  0.0646037354850009   F   F   F
  0.3808116614819994  0.0696980953220034  0.2131044146990035   F   F   F
  0.8808116614819994  0.0696980953220034  0.2131044146990035   F   F   F
  0.1308116614819994  0.5696980953220034  0.2131044146990035   F   F   F
  0.6308116614819994  0.5696980953220034  0.2131044146990035   F   F   F
  0.1472660646585288  0.0697792407017788  0.3651370481217630   T   T   T
  0.6073401751861291  0.0697764800851600  0.3636077976102396   T   T   T
  0.4042312984863391  0.5697597818433644  0.3605638516154944   T   T   T
  0.8626231449950523  0.5697677394063936  0.3594615987443207   T   T   T
  0.3997659197028264  0.0696671959862371  0.5166352743023090   T   T   T
  0.8588002318907177  0.0697425951825690  0.5143694031503788   T   T   T
  0.1139075170750329  0.5697521134377381  0.5024142911797522   T   T   T
  0.6619512244370478  0.5697525919865198  0.5058420066643053   T   T   T
 
  0.00000000E+00  0.00000000E+00  0.00000000E+00
  0.00000000E+00  0.00000000E+00  0.00000000E+00
  0.00000000E+00  0.00000000E+00  0.00000000E+00
  0.00000000E+00  0.00000000E+00  0.00000000E+00
  0.00000000E+00  0.00000000E+00  0.00000000E+00
  0.00000000E+00  0.00000000E+00  0.00000000E+00
  0.00000000E+00  0.00000000E+00  0.00000000E+00
  0.00000000E+00  0.00000000E+00  0.00000000E+00
  0.00000000E+00  0.00000000E+00  0.00000000E+00
  0.00000000E+00  0.00000000E+00  0.00000000E+00
  0.00000000E+00  0.00000000E+00  0.00000000E+00
  0.00000000E+00  0.00000000E+00  0.00000000E+00
  0.00000000E+00  0.00000000E+00  0.00000000E+00
  0.00000000E+00  0.00000000E+00  0.00000000E+00
  0.00000000E+00  0.00000000E+00  0.00000000E+00
  0.00000000E+00  0.00000000E+00  0.00000000E+00
  0.00000000E+00  0.00000000E+00  0.00000000E+00
  0.00000000E+00  0.00000000E+00  0.00000000E+00
  0.00000000E+00  0.00000000E+00  0.00000000E+00
  0.00000000E+00  0.00000000E+00  0.00000000E+00
  0.00000000E+00  0.00000000E+00  0.00000000E+00
  0.00000000E+00  0.00000000E+00  0.00000000E+00
  0.00000000E+00  0.00000000E+00  0.00000000E+00
  0.00000000E+00  0.00000000E+00  0.00000000E+00
  0.00000000E+00  0.00000000E+00  0.00000000E+00
  0.00000000E+00  0.00000000E+00  0.00000000E+00
  0.00000000E+00  0.00000000E+00  0.00000000E+00
  0.00000000E+00  0.00000000E+00  0.00000000E+00
  0.00000000E+00  0.00000000E+00  0.00000000E+00
  0.00000000E+00  0.00000000E+00  0.00000000E+00
  0.00000000E+00  0.00000000E+00  0.00000000E+00
  0.00000000E+00  0.00000000E+00  0.00000000E+00
  0.00000000E+00  0.00000000E+00  0.00000000E+00
  0.00000000E+00  0.00000000E+00  0.00000000E+00
  0.00000000E+00  0.00000000E+00  0.00000000E+00
  0.00000000E+00  0.00000000E+00  0.00000000E+00
  0.00000000E+00  0.00000000E+00  0.00000000E+00
  0.00000000E+00  0.00000000E+00  0.00000000E+00
  0.00000000E+00  0.00000000E+00  0.00000000E+00
  0.00000000E+00  0.00000000E+00  0.00000000E+00
  0.00000000E+00  0.00000000E+00  0.00000000E+00
  0.00000000E+00  0.00000000E+00  0.00000000E+00
  0.00000000E+00  0.00000000E+00  0.00000000E+00
  0.00000000E+00  0.00000000E+00  0.00000000E+00
  0.00000000E+00  0.00000000E+00  0.00000000E+00
  0.00000000E+00  0.00000000E+00  0.00000000E+00
  0.00000000E+00  0.00000000E+00  0.00000000E+00
  0.00000000E+00  0.00000000E+00  0.00000000E+00
