AutoCreatByScript                       
   1.00000000000000     
     0.0000000000000000    0.0000000000000000    6.3621569300000003
     4.5145112200000002   -4.5145112200000002    0.0000000000000000
    15.5716215699999996   15.5716215699999996    0.0000000000000000
   O    Ir
    32    16
Selective dynamics
Direct
  0.0891118943689975  0.3554564118390005  0.0000000000000000   F   F   F
  0.5891118943689975  0.3554564118390005  0.0000000000000000   F   F   F
  0.3391118943689975  0.0469264118390029  0.0555108188030005   F   F   F
  0.8391118943689975  0.0469264118390029  0.0555108188030005   F   F   F
  0.3391118943689975  0.6639864118389980  0.0555108188030005   F   F   F
  0.8391118943689975  0.6639864118389980  0.0555108188030005   F   F   F
  0.0891118943689975  0.3554564118390005  0.1110216376070028   F   F   F
  0.5891118943689975  0.3554564118390005  0.1110216376070028   F   F   F
  0.0891118943689975  0.8554564118390005  0.1449595727879966   F   F   F
  0.5891118943689975  0.8554564118390005  0.1449595727879966   F   F   F
  0.3391118943689975  0.1639864118389980  0.2004703915909971   F   F   F
  0.8391118943689975  0.1639864118389980  0.2004703915909971   F   F   F
  0.3391118943689975  0.5469264118390029  0.2004703915909971   F   F   F
  0.8391118943689975  0.5469264118390029  0.2004703915909971   F   F   F
  0.0891118943689975  0.8554564118390005  0.2559812103949994   F   F   F
  0.5891118943689975  0.8554564118390005  0.2559812103949994   F   F   F
  0.0891362678245284  0.3554247290201337  0.2894692184736925   T   T   T
  0.5891363012359775  0.3554247695139874  0.2894692129835368   T   T   T
  0.3391331168085551  0.0466976582032532  0.3459698456315913   T   T   T
  0.8391331203398659  0.0466977471942871  0.3459698520910343   T   T   T
  0.3391094779123233  0.6641848143661520  0.3459497500207932   T   T   T
  0.8391094967293844  0.6641847197352277  0.3459497572395333   T   T   T
  0.0891569259765417  0.3557145417487689  0.3998954398361343   T   T   T
  0.5891569052008366  0.3557145398547727  0.3998954604735564   T   T   T
  0.0891536464722614  0.8554948889689180  0.4360860314253007   T   T   T
  0.5891536206757341  0.8554948673509777  0.4360860390441566   T   T   T
  0.3391351880414401  0.1653760203225090  0.4940641022118236   T   T   T
  0.8391351623533796  0.1653760132863175  0.4940641119618703   T   T   T
  0.3391512813581569  0.5455574032950546  0.4940457911306627   T   T   T
  0.8391512747822403  0.5455574091535247  0.4940457943084484   T   T   T
  0.0891455902751674  0.8554808086013298  0.5466516385215479   T   T   T
  0.5891455792847518  0.8554807995773942  0.5466516447122448   T   T   T
  0.3391118943689975  0.3554564118390005  0.0555108188030005   F   F   F
  0.8391118943689975  0.3554564118390005  0.0555108188030005   F   F   F
  0.0891118943689975  0.8554564118390005  0.0555108188030005   F   F   F
  0.5891118943689975  0.8554564118390005  0.0555108188030005   F   F   F
  0.0891118943689975  0.3554564118390005  0.2004703915909971   F   F   F
  0.5891118943689975  0.3554564118390005  0.2004703915909971   F   F   F
  0.3391118943689975  0.8554564118390005  0.2004703915909971   F   F   F
  0.8391118943689975  0.8554564118390005  0.2004703915909971   F   F   F
  0.3391364753780584  0.3554265280648050  0.3448849801485471   T   T   T
  0.8391364228192851  0.3554265275597022  0.3448849683540139   T   T   T
  0.0891110584470298  0.8554341334265445  0.3463357808575752   T   T   T
  0.5891110878232190  0.8554341244754129  0.3463357713933967   T   T   T
  0.0891330948666884  0.3554486724868514  0.4881082840022301   T   T   T
  0.5891331024598886  0.3554486649429958  0.4881082821205799   T   T   T
  0.3391462986652679  0.8554493275721761  0.4928831008661524   T   T   T
  0.8391463550334309  0.8554493187886174  0.4928831044952235   T   T   T
 
  0.00000000E+00  0.00000000E+00  0.00000000E+00
  0.00000000E+00  0.00000000E+00  0.00000000E+00
  0.00000000E+00  0.00000000E+00  0.00000000E+00
  0.00000000E+00  0.00000000E+00  0.00000000E+00
  0.00000000E+00  0.00000000E+00  0.00000000E+00
  0.00000000E+00  0.00000000E+00  0.00000000E+00
  0.00000000E+00  0.00000000E+00  0.00000000E+00
  0.00000000E+00  0.00000000E+00  0.00000000E+00
  0.00000000E+00  0.00000000E+00  0.00000000E+00
  0.00000000E+00  0.00000000E+00  0.00000000E+00
  0.00000000E+00  0.00000000E+00  0.00000000E+00
  0.00000000E+00  0.00000000E+00  0.00000000E+00
  0.00000000E+00  0.00000000E+00  0.00000000E+00
  0.00000000E+00  0.00000000E+00  0.00000000E+00
  0.00000000E+00  0.00000000E+00  0.00000000E+00
  0.00000000E+00  0.00000000E+00  0.00000000E+00
  0.00000000E+00  0.00000000E+00  0.00000000E+00
  0.00000000E+00  0.00000000E+00  0.00000000E+00
  0.00000000E+00  0.00000000E+00  0.00000000E+00
  0.00000000E+00  0.00000000E+00  0.00000000E+00
  0.00000000E+00  0.00000000E+00  0.00000000E+00
  0.00000000E+00  0.00000000E+00  0.00000000E+00
  0.00000000E+00  0.00000000E+00  0.00000000E+00
  0.00000000E+00  0.00000000E+00  0.00000000E+00
  0.00000000E+00  0.00000000E+00  0.00000000E+00
  0.00000000E+00  0.00000000E+00  0.00000000E+00
  0.00000000E+00  0.00000000E+00  0.00000000E+00
  0.00000000E+00  0.00000000E+00  0.00000000E+00
  0.00000000E+00  0.00000000E+00  0.00000000E+00
  0.00000000E+00  0.00000000E+00  0.00000000E+00
  0.00000000E+00  0.00000000E+00  0.00000000E+00
  0.00000000E+00  0.00000000E+00  0.00000000E+00
  0.00000000E+00  0.00000000E+00  0.00000000E+00
  0.00000000E+00  0.00000000E+00  0.00000000E+00
  0.00000000E+00  0.00000000E+00  0.00000000E+00
  0.00000000E+00  0.00000000E+00  0.00000000E+00
  0.00000000E+00  0.00000000E+00  0.00000000E+00
  0.00000000E+00  0.00000000E+00  0.00000000E+00
  0.00000000E+00  0.00000000E+00  0.00000000E+00
  0.00000000E+00  0.00000000E+00  0.00000000E+00
  0.00000000E+00  0.00000000E+00  0.00000000E+00
  0.00000000E+00  0.00000000E+00  0.00000000E+00
  0.00000000E+00  0.00000000E+00  0.00000000E+00
  0.00000000E+00  0.00000000E+00  0.00000000E+00
  0.00000000E+00  0.00000000E+00  0.00000000E+00
  0.00000000E+00  0.00000000E+00  0.00000000E+00
  0.00000000E+00  0.00000000E+00  0.00000000E+00
  0.00000000E+00  0.00000000E+00  0.00000000E+00
