SYSTEM = IrO2_suf110_d3_2x1x4_2fix 
ISYM = 0
ISTART = 0              ! 0 = new job, 1 = restart
ISPIN  = 2              ! spin polarisation 1 = no 2 = yes

PREC   = Accurate       ! [Low/Medium/High/Normal/Accurate]

ENCUT  = 500            ! energy cutoff
#EDIFF  = 1.0E-5 ! [Global break cond. for the elec. SC-loop] Energy
NELMIN = 3        # iterations in SC loop
NELM   =  300 ! max iteraci v SC loop
ISMEAR = 0; SIGMA = 0.05  #-5 for accurate total energy and DOS 0 for large cell 1 for metal
LREAL = A    ! aproximace, T zpomaluje, ale presnejsi
NCORE   = 6       ! adjust to number of processors;  best on berni up to 8 CPUs
!IALGO  = 38      ! RMM-DIIS algorithm for electrons (Davidson: 38)

ALGO=Fast

!MAGMOM = 

NWRITE = 2       ! how much is written out
LCHARG = .False.! write restart charge file
LWAVE  = .False.  ! write restart wf file

IBRION= 2        ! 0 MD 1 Brodyn (opt,TS) 2 CG (opt)  3 damped MD(opt) 5  FC 
POTIM=0.1        ! ion step size/ time step (fs) for MD
EDIFFG = -0.05  ! convergence criterion for forces
NSW = 800        ! max # steps
ISIF = 2       ! [Stress tensor, 0 = not, 3 = relax latt+ions] p. 60

#HSE06
!TIME=0.5
!LHFCALC=.TRUE.
!HFSCREEN=0.2
!PRECFOCK=A
!LMAXFOCK=4 #4 for s/p, 6 for f

##HSE06,reference
#PRECFOCK= A
#LHFCALC = .TRUE. ; ALGO = Damped ; TIME = 0.5
#HFSCREEN = 0.2

# PBE+D3
IVDW = 12
VDW_s6 = 1.0 !s6-scaling parameter (should be kept fix at 1.0)
VDW_s8 = 0.7875 ! s8-scaling factor
VDW_a1 = 0.4289! scaling for damping function
VDW_a2 = 4.4407 ! scaling for damping function

# DFT+U
!LDAU= T
!LDAUTYPE= 2
!LDAUL = -1   -1  
!LDAUU = 0.0  0.0 
!LDAUJ = 0.0  0.0 


#for slabs, magnetic systems and insulating systems (e.g. molecules and clusters),
!AMIX = 0.2                                                           #
!BMIX = 0.0001     # almost zero, but 0 will crash some versions      #
!AMIX_MAG = 0.8                                                       #
!BMIX_MAG = 0.0001  # almost zero, but 0 will crash some versions     #
#MAXMIX =
!LMAXMIX= 4     #default 2;  DFT+U :4 for d-elements, 6 for f-elements;



#LASPH = .TRUE.    ! non-spherical contributions. neccessary for vdw

#PBE0
#LHFCALC = .TRUE. ; ALGO = Damped ; TIME = 0.5
#AEXX=0.25                                           


#B3LYP
#LHFCALC = . TRUE.
#PRECFOCK= A
#ALGO = D; TIME = 0.5

#GGA = B3
#AEXX = 0.2
#AGGAX = 0.72
#AGGAC = 0.81
#ALDAC = 0.19 

#vdw relavent#
#LUSE_VDW = .TRUE. !calculates vdW correlation
#AGGAC = 0.000000 !switches off GGA correlation so that only LDA correlation is used

!The exchange functionals are selected by the GGA tag.
#GGA = RE ! revPBE, the original Dion formulation

#GGA = OR ! optPBE

#GGA = BO ! optB88
#PARAM1 = 0.183333333333333 !two parameters need to be added
#PARAM2 = 0.2200000000

#GGA = MK ! optB86b which is similar to optB88
#PARAM1 = 0.1234 !again two parameters
#PARAM2 = 1.000
