AutoCreatByScript
 1.000000000
    0.00000000     0.00000000     6.36215693
    4.51451122    -4.51451122     0.00000000
   15.57162157    15.57162157     0.00000000
    O   Ir
   32   16
Selective Dynamics
Direct
    0.089111894369    0.355456411839    0.000000000000    F   F   F
    0.589111894369    0.355456411839    0.000000000000    F   F   F
    0.339111894369    0.046926411839    0.055510818803    F   F   F
    0.839111894369    0.046926411839    0.055510818803    F   F   F
    0.339111894369    0.663986411839    0.055510818803    F   F   F
    0.839111894369    0.663986411839    0.055510818803    F   F   F
    0.089111894369    0.355456411839    0.111021637607    F   F   F
    0.589111894369    0.355456411839    0.111021637607    F   F   F
    0.089111894369    0.855456411839    0.144959572788    F   F   F
    0.589111894369    0.855456411839    0.144959572788    F   F   F
    0.339111894369    0.163986411839    0.200470391591    F   F   F
    0.839111894369    0.163986411839    0.200470391591    F   F   F
    0.339111894369    0.546926411839    0.200470391591    F   F   F
    0.839111894369    0.546926411839    0.200470391591    F   F   F
    0.089111894369    0.855456411839    0.255981210395    F   F   F
    0.589111894369    0.855456411839    0.255981210395    F   F   F
    0.089111894369    0.355456411839    0.289919145576    T   T   T
    0.589111894369    0.355456411839    0.289919145576    T   T   T
    0.339111894369    0.046926411839    0.345429964380    T   T   T
    0.839111894369    0.046926411839    0.345429964380    T   T   T
    0.339111894369    0.663986411839    0.345429964380    T   T   T
    0.839111894369    0.663986411839    0.345429964380    T   T   T
    0.089111894369    0.355456411839    0.400940783183    T   T   T
    0.589111894369    0.355456411839    0.400940783183    T   T   T
    0.089111894369    0.855456411839    0.434878718364    T   T   T
    0.589111894369    0.855456411839    0.434878718364    T   T   T
    0.339111894369    0.163986411839    0.490389537168    T   T   T
    0.839111894369    0.163986411839    0.490389537168    T   T   T
    0.339111894369    0.546926411839    0.490389537168    T   T   T
    0.839111894369    0.546926411839    0.490389537168    T   T   T
    0.089111894369    0.855456411839    0.545900355971    T   T   T
    0.589111894369    0.855456411839    0.545900355971    T   T   T
    0.339111894369    0.355456411839    0.055510818803    F   F   F
    0.839111894369    0.355456411839    0.055510818803    F   F   F
    0.089111894369    0.855456411839    0.055510818803    F   F   F
    0.589111894369    0.855456411839    0.055510818803    F   F   F
    0.089111894369    0.355456411839    0.200470391591    F   F   F
    0.589111894369    0.355456411839    0.200470391591    F   F   F
    0.339111894369    0.855456411839    0.200470391591    F   F   F
    0.839111894369    0.855456411839    0.200470391591    F   F   F
    0.339111894369    0.355456411839    0.345429964380    T   T   T
    0.839111894369    0.355456411839    0.345429964380    T   T   T
    0.089111894369    0.855456411839    0.345429964380    T   T   T
    0.589111894369    0.855456411839    0.345429964380    T   T   T
    0.089111894369    0.355456411839    0.490389537168    T   T   T
    0.589111894369    0.355456411839    0.490389537168    T   T   T
    0.339111894369    0.855456411839    0.490389537168    T   T   T
    0.839111894369    0.855456411839    0.490389537168    T   T   T
