AutoCreatByScript                       
   1.00000000000000     
     0.0000000000000000    0.0000000000000000    5.8446793799999996
     4.4684765999999998   -4.4684765999999998    0.0000000000000000
    15.5063004600000003   15.5063004600000003    0.0000000000000000
    H   O    Ge   Ir
    1    32    15     1
Selective dynamics
Direct
  0.630863451457  0.0700414505155  0.592053924173   T   T   T
  0.1308116614819994  0.5696980953220034  0.0000000000000000   F   F   F
  0.6308116614819994  0.5696980953220034  0.0000000000000000   F   F   F
  0.3808116614819994  0.2635580953219971  0.0558649612089965   F   F   F
  0.8808116614819994  0.2635580953219971  0.0558649612089965   F   F   F
  0.3808116614819994  0.8758380953220026  0.0558649612089965   F   F   F
  0.8808116614819994  0.8758380953220026  0.0558649612089965   F   F   F
  0.1308116614819994  0.5696980953220034  0.1117299224169983   F   F   F
  0.6308116614819994  0.5696980953220034  0.1117299224169983   F   F   F
  0.1308116614819994  0.0696980953220034  0.1440858382559966   F   F   F
  0.6308116614819994  0.0696980953220034  0.1440858382559966   F   F   F
  0.3808116614819994  0.3758380953220026  0.1999507994639984   F   F   F
  0.8808116614819994  0.3758380953220026  0.1999507994639984   F   F   F
  0.3808116614819994  0.7635580953219971  0.1999507994639984   F   F   F
  0.8808116614819994  0.7635580953219971  0.1999507994639984   F   F   F
  0.1308116614819994  0.0696980953220034  0.2558157606730020   F   F   F
  0.6308116614819994  0.0696980953220034  0.2558157606730020   F   F   F
  0.1307171536190807  0.5696467559310509  0.2868627978835082   T   T   T
  0.6307381213277105  0.5696401358814616  0.2883873392964278   T   T   T
  0.3810757322535847  0.2659830042137000  0.3436078851640214   T   T   T
  0.8804485060662586  0.2659907774782452  0.3436173909754396   T   T   T
  0.3810978918853307  0.8731048641175552  0.3436106054871257   T   T   T
  0.8804499188610314  0.8731116046152276  0.3436177870654322   T   T   T
  0.1307856737152410  0.5697098387923604  0.3976239685384846   T   T   T
  0.6307678101512878  0.5696455295595021  0.4000106838312900   T   T   T
  0.1307563830475652  0.0697593763741199  0.4330853697622798   T   T   T
  0.6307814929176710  0.0697320560361376  0.4334190277417449   T   T   T
  0.3678830624730819  0.3791535603609152  0.4948191790316183   T   T   T
  0.8939947666734109  0.3792056039408754  0.4948419907969084   T   T   T
  0.3679685527722920  0.7604660067133052  0.4948376253199564   T   T   T
  0.8941290026925041  0.7604352540094632  0.4948666268142705   T   T   T
  0.1308934362995080  0.0699379555555208  0.5477851042631600   T   T   T
  0.6308591356077452  0.0699223974167446  0.5464526808158789   T   T   T
  0.1308116614819994  0.0696980953220034  0.0558649612089965   F   F   F
  0.6308116614819994  0.0696980953220034  0.0558649612089965   F   F   F
  0.3808116614819994  0.5696980953220034  0.0558649612089965   F   F   F
  0.8808116614819994  0.5696980953220034  0.0558649612089965   F   F   F
  0.3808116614819994  0.0696980953220034  0.1999507994639984   F   F   F
  0.8808116614819994  0.0696980953220034  0.1999507994639984   F   F   F
  0.1308116614819994  0.5696980953220034  0.1999507994639984   F   F   F
  0.6308116614819994  0.5696980953220034  0.1999507994639984   F   F   F
  0.1307727813709343  0.0695349551315158  0.3469396393149066   T   T   T
  0.6307728378978246  0.0695533475601458  0.3470409921225435   T   T   T
  0.3785608556551188  0.5695206525235884  0.3413031114271419   T   T   T
  0.8829063968203782  0.5695372207509954  0.3413135313967388   T   T   T
  0.3792143504107967  0.0698292102655900  0.4963301022096251   T   T   T
  0.8824944338535707  0.0697538861382752  0.4963361736322873   T   T   T
  0.1309710290178200  0.5697757267376816  0.4817849946561640   T   T   T
  0.6310985320667115  0.5698143302433660  0.4870849228673707   T   T   T
 
