AutoCreatByScript
 1.000000000
    0.00000000     0.00000000     5.45982775
    4.93807595    -4.93807595     0.00000000
   16.62644229    16.62644229     0.00000000
    O   Mo
   32   16
Selective Dynamics
Direct
    0.130811661482    0.569698095322    0.000000000000    F   F   F
    0.630811661482    0.569698095322    0.000000000000    F   F   F
    0.380811661482    0.287218095322    0.064603735485    F   F   F
    0.880811661482    0.287218095322    0.064603735485    F   F   F
    0.380811661482    0.852178095322    0.064603735485    F   F   F
    0.880811661482    0.852178095322    0.064603735485    F   F   F
    0.130811661482    0.569698095322    0.129207470970    F   F   F
    0.630811661482    0.569698095322    0.129207470970    F   F   F
    0.130811661482    0.069698095322    0.148500679214    F   F   F
    0.630811661482    0.069698095322    0.148500679214    F   F   F
    0.380811661482    0.352178095322    0.213104414699    F   F   F
    0.880811661482    0.352178095322    0.213104414699    F   F   F
    0.380811661482    0.787218095322    0.213104414699    F   F   F
    0.880811661482    0.787218095322    0.213104414699    F   F   F
    0.130811661482    0.069698095322    0.277708150184    F   F   F
    0.630811661482    0.069698095322    0.277708150184    F   F   F
    0.130811661482    0.569698095322    0.297001358427    T   T   T
    0.630811661482    0.569698095322    0.297001358427    T   T   T
    0.380811661482    0.287218095322    0.361605093913    T   T   T
    0.880811661482    0.287218095322    0.361605093913    T   T   T
    0.380811661482    0.852178095322    0.361605093913    T   T   T
    0.880811661482    0.852178095322    0.361605093913    T   T   T
    0.130811661482    0.569698095322    0.426208829398    T   T   T
    0.630811661482    0.569698095322    0.426208829398    T   T   T
    0.130811661482    0.069698095322    0.445502037641    T   T   T
    0.630811661482    0.069698095322    0.445502037641    T   T   T
    0.380811661482    0.352178095322    0.510105773126    T   T   T
    0.880811661482    0.352178095322    0.510105773126    T   T   T
    0.380811661482    0.787218095322    0.510105773126    T   T   T
    0.880811661482    0.787218095322    0.510105773126    T   T   T
    0.130811661482    0.069698095322    0.574709508612    T   T   T
    0.630811661482    0.069698095322    0.574709508612    T   T   T
    0.130811661482    0.069698095322    0.064603735485    F   F   F
    0.630811661482    0.069698095322    0.064603735485    F   F   F
    0.380811661482    0.569698095322    0.064603735485    F   F   F
    0.880811661482    0.569698095322    0.064603735485    F   F   F
    0.380811661482    0.069698095322    0.213104414699    F   F   F
    0.880811661482    0.069698095322    0.213104414699    F   F   F
    0.130811661482    0.569698095322    0.213104414699    F   F   F
    0.630811661482    0.569698095322    0.213104414699    F   F   F
    0.130811661482    0.069698095322    0.361605093913    T   T   T
    0.630811661482    0.069698095322    0.361605093913    T   T   T
    0.380811661482    0.569698095322    0.361605093913    T   T   T
    0.880811661482    0.569698095322    0.361605093913    T   T   T
    0.380811661482    0.069698095322    0.510105773126    T   T   T
    0.880811661482    0.069698095322    0.510105773126    T   T   T
    0.130811661482    0.569698095322    0.510105773126    T   T   T
    0.630811661482    0.569698095322    0.510105773126    T   T   T
