AutoCreatByScript
 1.000000000
    0.00000000     0.00000000     5.84467938
    4.46847660    -4.46847660     0.00000000
   15.50630046    15.50630046     0.00000000
    O   Ge
   32   16
Selective Dynamics
Direct
    0.130811661482    0.569698095322    0.000000000000    F   F   F
    0.630811661482    0.569698095322    0.000000000000    F   F   F
    0.380811661482    0.263558095322    0.055864961209    F   F   F
    0.880811661482    0.263558095322    0.055864961209    F   F   F
    0.380811661482    0.875838095322    0.055864961209    F   F   F
    0.880811661482    0.875838095322    0.055864961209    F   F   F
    0.130811661482    0.569698095322    0.111729922417    F   F   F
    0.630811661482    0.569698095322    0.111729922417    F   F   F
    0.130811661482    0.069698095322    0.144085838256    F   F   F
    0.630811661482    0.069698095322    0.144085838256    F   F   F
    0.380811661482    0.375838095322    0.199950799464    F   F   F
    0.880811661482    0.375838095322    0.199950799464    F   F   F
    0.380811661482    0.763558095322    0.199950799464    F   F   F
    0.880811661482    0.763558095322    0.199950799464    F   F   F
    0.130811661482    0.069698095322    0.255815760673    F   F   F
    0.630811661482    0.069698095322    0.255815760673    F   F   F
    0.130811661482    0.569698095322    0.288171676512    T   T   T
    0.630811661482    0.569698095322    0.288171676512    T   T   T
    0.380811661482    0.263558095322    0.344036637720    T   T   T
    0.880811661482    0.263558095322    0.344036637720    T   T   T
    0.380811661482    0.875838095322    0.344036637720    T   T   T
    0.880811661482    0.875838095322    0.344036637720    T   T   T
    0.130811661482    0.569698095322    0.399901598929    T   T   T
    0.630811661482    0.569698095322    0.399901598929    T   T   T
    0.130811661482    0.069698095322    0.432257514767    T   T   T
    0.630811661482    0.069698095322    0.432257514767    T   T   T
    0.380811661482    0.375838095322    0.488122475976    T   T   T
    0.880811661482    0.375838095322    0.488122475976    T   T   T
    0.380811661482    0.763558095322    0.488122475976    T   T   T
    0.880811661482    0.763558095322    0.488122475976    T   T   T
    0.130811661482    0.069698095322    0.543987437184    T   T   T
    0.630811661482    0.069698095322    0.543987437184    T   T   T
    0.130811661482    0.069698095322    0.055864961209    F   F   F
    0.630811661482    0.069698095322    0.055864961209    F   F   F
    0.380811661482    0.569698095322    0.055864961209    F   F   F
    0.880811661482    0.569698095322    0.055864961209    F   F   F
    0.380811661482    0.069698095322    0.199950799464    F   F   F
    0.880811661482    0.069698095322    0.199950799464    F   F   F
    0.130811661482    0.569698095322    0.199950799464    F   F   F
    0.630811661482    0.569698095322    0.199950799464    F   F   F
    0.130811661482    0.069698095322    0.344036637720    T   T   T
    0.630811661482    0.069698095322    0.344036637720    T   T   T
    0.380811661482    0.569698095322    0.344036637720    T   T   T
    0.880811661482    0.569698095322    0.344036637720    T   T   T
    0.380811661482    0.069698095322    0.488122475976    T   T   T
    0.880811661482    0.069698095322    0.488122475976    T   T   T
    0.130811661482    0.569698095322    0.488122475976    T   T   T
    0.630811661482    0.569698095322    0.488122475976    T   T   T
