AutoCreatByScript
 1.000000000
    0.00000000     0.00000000     6.19967903
    4.49638446    -4.49638446     0.00000000
   15.55331725    15.55331725     0.00000000
    O   Rh
   32   16
Selective Dynamics
Direct
    0.130811661482    0.569698095322    0.000000000000    F   F   F
    0.630811661482    0.569698095322    0.000000000000    F   F   F
    0.380811661482    0.262928095322    0.055861804664    F   F   F
    0.880811661482    0.262928095322    0.055861804664    F   F   F
    0.380811661482    0.876468095322    0.055861804664    F   F   F
    0.880811661482    0.876468095322    0.055861804664    F   F   F
    0.130811661482    0.569698095322    0.111723609328    F   F   F
    0.630811661482    0.569698095322    0.111723609328    F   F   F
    0.130811661482    0.069698095322    0.144547442592    F   F   F
    0.630811661482    0.069698095322    0.144547442592    F   F   F
    0.380811661482    0.376468095322    0.200409247256    F   F   F
    0.880811661482    0.376468095322    0.200409247256    F   F   F
    0.380811661482    0.762928095322    0.200409247256    F   F   F
    0.880811661482    0.762928095322    0.200409247256    F   F   F
    0.130811661482    0.069698095322    0.256271051921    F   F   F
    0.630811661482    0.069698095322    0.256271051921    F   F   F
    0.130811661482    0.569698095322    0.289094885184    T   T   T
    0.630811661482    0.569698095322    0.289094885184    T   T   T
    0.380811661482    0.262928095322    0.344956689849    T   T   T
    0.880811661482    0.262928095322    0.344956689849    T   T   T
    0.380811661482    0.876468095322    0.344956689849    T   T   T
    0.880811661482    0.876468095322    0.344956689849    T   T   T
    0.130811661482    0.569698095322    0.400818494513    T   T   T
    0.630811661482    0.569698095322    0.400818494513    T   T   T
    0.130811661482    0.069698095322    0.433642327777    T   T   T
    0.630811661482    0.069698095322    0.433642327777    T   T   T
    0.380811661482    0.376468095322    0.489504132441    T   T   T
    0.880811661482    0.376468095322    0.489504132441    T   T   T
    0.380811661482    0.762928095322    0.489504132441    T   T   T
    0.880811661482    0.762928095322    0.489504132441    T   T   T
    0.130811661482    0.069698095322    0.545365937105    T   T   T
    0.630811661482    0.069698095322    0.545365937105    T   T   T
    0.130811661482    0.069698095322    0.055861804664    F   F   F
    0.630811661482    0.069698095322    0.055861804664    F   F   F
    0.380811661482    0.569698095322    0.055861804664    F   F   F
    0.880811661482    0.569698095322    0.055861804664    F   F   F
    0.380811661482    0.069698095322    0.200409247256    F   F   F
    0.880811661482    0.069698095322    0.200409247256    F   F   F
    0.130811661482    0.569698095322    0.200409247256    F   F   F
    0.630811661482    0.569698095322    0.200409247256    F   F   F
    0.130811661482    0.069698095322    0.344956689849    T   T   T
    0.630811661482    0.069698095322    0.344956689849    T   T   T
    0.380811661482    0.569698095322    0.344956689849    T   T   T
    0.880811661482    0.569698095322    0.344956689849    T   T   T
    0.380811661482    0.069698095322    0.489504132441    T   T   T
    0.880811661482    0.069698095322    0.489504132441    T   T   T
    0.130811661482    0.569698095322    0.489504132441    T   T   T
    0.630811661482    0.569698095322    0.489504132441    T   T   T
