AutoCreatByScript                       
   1.00000000000000     
     0.0000000000000000    0.0000000000000000    5.9213599700000001
     4.6299534199999997   -4.6299534199999997    0.0000000000000000
    15.8293654999999998   15.8293654999999998    0.0000000000000000
    H    C   O    Ti
    4    1    32    16
Selective dynamics
Direct
  0.5888673785809159  0.44794382580471914  0.5915228387645937   T   T   T
  0.5887888470028286  0.8198517925021603  0.576389169439831   T   T   T
  0.7399172650773242  0.6367492589487217  0.6197659069749404   T   T   T
  0.4376086676591457  0.6366789661378026  0.6197278807265068   T   T   T
  0.5888049194966902  0.6617342229646939  0.5924545955347011   T   T   T
  0.0891118943689975  0.7734631979840003  0.0000000000000000   F   F   F
  0.5891118943689975  0.7734631979840003  0.0000000000000000   F   F   F
  0.3391118943689975  0.0776331979839995  0.0572785926639980   F   F   F
  0.8391118943689975  0.0776331979839995  0.0572785926639980   F   F   F
  0.3391118943689975  0.4692931979840012  0.0572785926639980   F   F   F
  0.8391118943689975  0.4692931979840012  0.0572785926639980   F   F   F
  0.0891118943689975  0.7734631979840003  0.1145571853270013   F   F   F
  0.5891118943689975  0.7734631979840003  0.1145571853270013   F   F   F
  0.0891118943689975  0.2734631979840003  0.1462457045999983   F   F   F
  0.5891118943689975  0.2734631979840003  0.1462457045999983   F   F   F
  0.3391118943689975  0.5776331979839995  0.2035242972630016   F   F   F
  0.8391118943689975  0.5776331979839995  0.2035242972630016   F   F   F
  0.3391118943689975  0.9692931979840012  0.2035242972630016   F   F   F
  0.8391118943689975  0.9692931979840012  0.2035242972630016   F   F   F
  0.0891118943689975  0.2734631979840003  0.2608028899269996   F   F   F
  0.5891118943689975  0.2734631979840003  0.2608028899269996   F   F   F
  0.0891159851233429  0.7734824419435781  0.2938632399497339   T   T   T
  0.5891159774421972  0.7734823595066571  0.2938632379659102   T   T   T
  0.3391167935365808  0.0741986559620357  0.3508079147450951   T   T   T
  0.8391166798156082  0.0741986664866443  0.3508079013800564   T   T   T
  0.3391228311189100  0.4727435427354332  0.3507909082310759   T   T   T
  0.8391228514462665  0.4727435305167787  0.3507908950038404   T   T   T
  0.0890523762940395  0.7734280260305796  0.4085065973789079   T   T   T
  0.5890524244356404  0.7734281122747123  0.4085065952084295   T   T   T
  0.0889647690044379  0.2734296506553063  0.4399190871250429   T   T   T
  0.5889647081720287  0.2734298838520650  0.4399191079582506   T   T   T
  0.3389152691616951  0.5853214693431544  0.5049375153214354   T   T   T
  0.8389152796922289  0.5853214661879402  0.5049375301241518   T   T   T
  0.3388901515636343  0.9614424738162995  0.5049364372903421   T   T   T
  0.8388901359040818  0.9614424780930632  0.5049364512961848   T   T   T
  0.0889819156407941  0.2733565318131078  0.5554197548299300   T   T   T
  0.5889819234725509  0.2733563356315044  0.5554197737672378   T   T   T
  0.0891118943689975  0.2734631979840003  0.0572785926639980   F   F   F
  0.5891118943689975  0.2734631979840003  0.0572785926639980   F   F   F
  0.3391118943689975  0.7734631979840003  0.0572785926639980   F   F   F
  0.8391118943689975  0.7734631979840003  0.0572785926639980   F   F   F
  0.3391118943689975  0.2734631979840003  0.2035242972630016   F   F   F
  0.8391118943689975  0.2734631979840003  0.2035242972630016   F   F   F
  0.0891118943689975  0.7734631979840003  0.2035242972630016   F   F   F
  0.5891118943689975  0.7734631979840003  0.2035242972630016   F   F   F
  0.0892367230481970  0.2734093777848503  0.3560387976913549   T   T   T
  0.5892367184132385  0.2734093719591235  0.3560388246533014   T   T   T
  0.3391802409328915  0.7733863015322082  0.3472259794735021   T   T   T
  0.8391802388902425  0.7733863009908419  0.3472259829138596   T   T   T
  0.3390706239000359  0.2733864194631406  0.5060860038043753   T   T   T
  0.8390705927444450  0.2733864201489015  0.5060860155112198   T   T   T
  0.0889567759830766  0.7733867920217938  0.4903402681009254   T   T   T
  0.5889567584197851  0.7733869856900931  0.4903402653780784   T   T   T
 
