AutoCreatByScript                       
   1.00000000000000     
     0.0000000000000000    0.0000000000000000    5.6471101399999997
     4.5609432800000000   -4.5609432800000000    0.0000000000000000
    15.7453433999999994   15.7453433999999994    0.0000000000000000
   O    V 
    32    16
Selective dynamics
Direct
  0.4159148931500027  0.5548013448719971  0.0000000000000000   F   F   F
  0.9159148931500027  0.5548013448719971  0.0000000000000000   F   F   F
  0.1659148931500027  0.2557313448719967  0.0582032611189973   F   F   F
  0.6659148931500027  0.2557313448719967  0.0582032611189973   F   F   F
  0.1659148931500027  0.8538713448719975  0.0582032611189973   F   F   F
  0.6659148931500027  0.8538713448719975  0.0582032611189973   F   F   F
  0.4159148931500027  0.5548013448719971  0.1164065222380017   F   F   F
  0.9159148931500027  0.5548013448719971  0.1164065222380017   F   F   F
  0.4159148931500027  0.0548013448719971  0.1448346715749977   F   F   F
  0.9159148931500027  0.0548013448719971  0.1448346715749977   F   F   F
  0.1659148931500027  0.3538713448719975  0.2030379326940022   F   F   F
  0.6659148931500027  0.3538713448719975  0.2030379326940022   F   F   F
  0.1659148931500027  0.7557313448719967  0.2030379326940022   F   F   F
  0.6659148931500027  0.7557313448719967  0.2030379326940022   F   F   F
  0.4159148931500027  0.0548013448719971  0.2612411938129995   F   F   F
  0.9159148931500027  0.0548013448719971  0.2612411938129995   F   F   F
  0.4159935515201828  0.5547949015243849  0.2889322672269348   T   T   T
  0.9159935885997100  0.5547949415537681  0.2889322572193052   T   T   T
  0.1659325942479415  0.2564021214595623  0.3492322744954001   T   T   T
  0.6659316896575648  0.2564020015086680  0.3492322801585661   T   T   T
  0.1658994985546898  0.8532002309082738  0.3492147423633256   T   T   T
  0.6658985845153983  0.8532003375994059  0.3492147362942503   T   T   T
  0.4159519602844267  0.5547893633724134  0.4069540965837594   T   T   T
  0.9159521600242044  0.5547893571354365  0.4069544367462236   T   T   T
  0.4159634092089368  0.0546819185229740  0.4383726376491653   T   T   T
  0.9159634706493917  0.0546819237861890  0.4383726877910859   T   T   T
  0.1659655045806524  0.3639749859995218  0.5021103746017055   T   T   T
  0.6659647942788312  0.3639749412182404  0.5021103308917813   T   T   T
  0.1659575005836808  0.7453350733708607  0.5021250977307040   T   T   T
  0.6659567990662383  0.7453351339299059  0.5021250571925608   T   T   T
  0.4160319277131302  0.0547058143885111  0.5514226107649461   T   T   T
  0.9160318713424134  0.0547058131378495  0.5514224665191372   T   T   T
  0.4159148931500027  0.0548013448719971  0.0582032611189973   F   F   F
  0.9159148931500027  0.0548013448719971  0.0582032611189973   F   F   F
  0.1659148931500027  0.5548013448719971  0.0582032611189973   F   F   F
  0.6659148931500027  0.5548013448719971  0.0582032611189973   F   F   F
  0.1659148931500027  0.0548013448719971  0.2030379326940022   F   F   F
  0.6659148931500027  0.0548013448719971  0.2030379326940022   F   F   F
  0.4159148931500027  0.5548013448719971  0.2030379326940022   F   F   F
  0.9159148931500027  0.5548013448719971  0.2030379326940022   F   F   F
  0.4160260995521713  0.0548486683040135  0.3531026366339730   T   T   T
  0.9160259978095739  0.0548486685061447  0.3531027587843070   T   T   T
  0.1660256767281102  0.5548951673500533  0.3444136361940203   T   T   T
  0.6660262888310288  0.5548951713557576  0.3444136359551837   T   T   T
  0.1660559474879873  0.0547186944944872  0.5021349873504766   T   T   T
  0.6660572652957759  0.0547186980586478  0.5021348914382062   T   T   T
  0.4159467302164808  0.5546849365844243  0.4852896545418434   T   T   T
  0.9159467307942306  0.5546849280697869  0.4852899904810370   T   T   T
 
  0.00000000E+00  0.00000000E+00  0.00000000E+00
  0.00000000E+00  0.00000000E+00  0.00000000E+00
  0.00000000E+00  0.00000000E+00  0.00000000E+00
  0.00000000E+00  0.00000000E+00  0.00000000E+00
  0.00000000E+00  0.00000000E+00  0.00000000E+00
  0.00000000E+00  0.00000000E+00  0.00000000E+00
  0.00000000E+00  0.00000000E+00  0.00000000E+00
  0.00000000E+00  0.00000000E+00  0.00000000E+00
  0.00000000E+00  0.00000000E+00  0.00000000E+00
  0.00000000E+00  0.00000000E+00  0.00000000E+00
  0.00000000E+00  0.00000000E+00  0.00000000E+00
  0.00000000E+00  0.00000000E+00  0.00000000E+00
  0.00000000E+00  0.00000000E+00  0.00000000E+00
  0.00000000E+00  0.00000000E+00  0.00000000E+00
  0.00000000E+00  0.00000000E+00  0.00000000E+00
  0.00000000E+00  0.00000000E+00  0.00000000E+00
  0.00000000E+00  0.00000000E+00  0.00000000E+00
  0.00000000E+00  0.00000000E+00  0.00000000E+00
  0.00000000E+00  0.00000000E+00  0.00000000E+00
  0.00000000E+00  0.00000000E+00  0.00000000E+00
  0.00000000E+00  0.00000000E+00  0.00000000E+00
  0.00000000E+00  0.00000000E+00  0.00000000E+00
  0.00000000E+00  0.00000000E+00  0.00000000E+00
  0.00000000E+00  0.00000000E+00  0.00000000E+00
  0.00000000E+00  0.00000000E+00  0.00000000E+00
  0.00000000E+00  0.00000000E+00  0.00000000E+00
  0.00000000E+00  0.00000000E+00  0.00000000E+00
  0.00000000E+00  0.00000000E+00  0.00000000E+00
  0.00000000E+00  0.00000000E+00  0.00000000E+00
  0.00000000E+00  0.00000000E+00  0.00000000E+00
  0.00000000E+00  0.00000000E+00  0.00000000E+00
  0.00000000E+00  0.00000000E+00  0.00000000E+00
  0.00000000E+00  0.00000000E+00  0.00000000E+00
  0.00000000E+00  0.00000000E+00  0.00000000E+00
  0.00000000E+00  0.00000000E+00  0.00000000E+00
  0.00000000E+00  0.00000000E+00  0.00000000E+00
  0.00000000E+00  0.00000000E+00  0.00000000E+00
  0.00000000E+00  0.00000000E+00  0.00000000E+00
  0.00000000E+00  0.00000000E+00  0.00000000E+00
  0.00000000E+00  0.00000000E+00  0.00000000E+00
  0.00000000E+00  0.00000000E+00  0.00000000E+00
  0.00000000E+00  0.00000000E+00  0.00000000E+00
  0.00000000E+00  0.00000000E+00  0.00000000E+00
  0.00000000E+00  0.00000000E+00  0.00000000E+00
  0.00000000E+00  0.00000000E+00  0.00000000E+00
  0.00000000E+00  0.00000000E+00  0.00000000E+00
  0.00000000E+00  0.00000000E+00  0.00000000E+00
  0.00000000E+00  0.00000000E+00  0.00000000E+00
