AutoCreatByScript
 1.000000000
    0.00000000     0.00000000     5.64711014
    4.56094328    -4.56094328     0.00000000
   15.74534340    15.74534340     0.00000000
    O    V
   32   16
Selective Dynamics
Direct
    0.415914893150    0.554801344872    0.000000000000    F   F   F
    0.915914893150    0.554801344872    0.000000000000    F   F   F
    0.165914893150    0.255731344872    0.058203261119    F   F   F
    0.665914893150    0.255731344872    0.058203261119    F   F   F
    0.165914893150    0.853871344872    0.058203261119    F   F   F
    0.665914893150    0.853871344872    0.058203261119    F   F   F
    0.415914893150    0.554801344872    0.116406522238    F   F   F
    0.915914893150    0.554801344872    0.116406522238    F   F   F
    0.415914893150    0.054801344872    0.144834671575    F   F   F
    0.915914893150    0.054801344872    0.144834671575    F   F   F
    0.165914893150    0.353871344872    0.203037932694    F   F   F
    0.665914893150    0.353871344872    0.203037932694    F   F   F
    0.165914893150    0.755731344872    0.203037932694    F   F   F
    0.665914893150    0.755731344872    0.203037932694    F   F   F
    0.415914893150    0.054801344872    0.261241193813    F   F   F
    0.915914893150    0.054801344872    0.261241193813    F   F   F
    0.415914893150    0.554801344872    0.289669343149    T   T   T
    0.915914893150    0.554801344872    0.289669343149    T   T   T
    0.165914893150    0.255731344872    0.347872604268    T   T   T
    0.665914893150    0.255731344872    0.347872604268    T   T   T
    0.165914893150    0.853871344872    0.347872604268    T   T   T
    0.665914893150    0.853871344872    0.347872604268    T   T   T
    0.415914893150    0.554801344872    0.406075865387    T   T   T
    0.915914893150    0.554801344872    0.406075865387    T   T   T
    0.415914893150    0.054801344872    0.434504014724    T   T   T
    0.915914893150    0.054801344872    0.434504014724    T   T   T
    0.165914893150    0.353871344872    0.492707275843    T   T   T
    0.665914893150    0.353871344872    0.492707275843    T   T   T
    0.165914893150    0.755731344872    0.492707275843    T   T   T
    0.665914893150    0.755731344872    0.492707275843    T   T   T
    0.415914893150    0.054801344872    0.550910536962    T   T   T
    0.915914893150    0.054801344872    0.550910536962    T   T   T
    0.415914893150    0.054801344872    0.058203261119    F   F   F
    0.915914893150    0.054801344872    0.058203261119    F   F   F
    0.165914893150    0.554801344872    0.058203261119    F   F   F
    0.665914893150    0.554801344872    0.058203261119    F   F   F
    0.165914893150    0.054801344872    0.203037932694    F   F   F
    0.665914893150    0.054801344872    0.203037932694    F   F   F
    0.415914893150    0.554801344872    0.203037932694    F   F   F
    0.915914893150    0.554801344872    0.203037932694    F   F   F
    0.415914893150    0.054801344872    0.347872604268    T   T   T
    0.915914893150    0.054801344872    0.347872604268    T   T   T
    0.165914893150    0.554801344872    0.347872604268    T   T   T
    0.665914893150    0.554801344872    0.347872604268    T   T   T
    0.165914893150    0.054801344872    0.492707275843    T   T   T
    0.665914893150    0.054801344872    0.492707275843    T   T   T
    0.415914893150    0.554801344872    0.492707275843    T   T   T
    0.915914893150    0.554801344872    0.492707275843    T   T   T
