AutoCreatByScript                       
   1.00000000000000     
     0.0000000000000000    0.0000000000000000    6.4220398899999998
     4.4991475799999998   -4.4991475799999998    0.0000000000000000
    15.5458421599999994   15.5458421599999994    0.0000000000000000
   O    Os
    32    16
Selective dynamics
Direct
  0.1308116614819994  0.5696980953220034  0.0000000000000000   F   F   F
  0.6308116614819994  0.5696980953220034  0.0000000000000000   F   F   F
  0.3808116614819994  0.2615180953220033  0.0555149396319976   F   F   F
  0.8808116614819994  0.2615180953220033  0.0555149396319976   F   F   F
  0.3808116614819994  0.8778780953220036  0.0555149396319976   F   F   F
  0.8808116614819994  0.8778780953220036  0.0555149396319976   F   F   F
  0.1308116614819994  0.5696980953220034  0.1110298792640023   F   F   F
  0.6308116614819994  0.5696980953220034  0.1110298792640023   F   F   F
  0.1308116614819994  0.0696980953220034  0.1447058169949997   F   F   F
  0.6308116614819994  0.0696980953220034  0.1447058169949997   F   F   F
  0.3808116614819994  0.3778780953220036  0.2002207566269973   F   F   F
  0.8808116614819994  0.3778780953220036  0.2002207566269973   F   F   F
  0.3808116614819994  0.7615180953220033  0.2002207566269973   F   F   F
  0.8808116614819994  0.7615180953220033  0.2002207566269973   F   F   F
  0.1308116614819994  0.0696980953220034  0.2557356962590021   F   F   F
  0.6308116614819994  0.0696980953220034  0.2557356962590021   F   F   F
  0.1308026390383778  0.5697077372968783  0.2891236493552103   T   T   T
  0.6308063725004703  0.5697077267800319  0.2891236868966277   T   T   T
  0.3808134157952552  0.2602067993597479  0.3454478718284751   T   T   T
  0.8808142612496050  0.2602089016247348  0.3454476396833093   T   T   T
  0.3807921080949517  0.8792048196597521  0.3454453212333253   T   T   T
  0.8807930339085037  0.8792027075119109  0.3454450913881460   T   T   T
  0.1307974337095729  0.5697020452443244  0.3990272943040802   T   T   T
  0.6307988600897954  0.5697016575411056  0.3990286459145366   T   T   T
  0.1307259941284926  0.0696924490176575  0.4348291664874702   T   T   T
  0.6307144831195036  0.0696921879580445  0.4348294723288531   T   T   T
  0.3807955669102094  0.3808904334299205  0.4919981644465173   T   T   T
  0.8807905587679620  0.3808941683891287  0.4919981894463583   T   T   T
  0.3807979714586684  0.7584696905171977  0.4920000537712573   T   T   T
  0.8807929570587417  0.7584659432483767  0.4920000764354480   T   T   T
  0.1307679547824780  0.0696632625519830  0.5433766603571568   T   T   T
  0.6307430183666245  0.0696633517365525  0.5433765719988441   T   T   T
  0.1308116614819994  0.0696980953220034  0.0555149396319976   F   F   F
  0.6308116614819994  0.0696980953220034  0.0555149396319976   F   F   F
  0.3808116614819994  0.5696980953220034  0.0555149396319976   F   F   F
  0.8808116614819994  0.5696980953220034  0.0555149396319976   F   F   F
  0.3808116614819994  0.0696980953220034  0.2002207566269973   F   F   F
  0.8808116614819994  0.0696980953220034  0.2002207566269973   F   F   F
  0.1308116614819994  0.5696980953220034  0.2002207566269973   F   F   F
  0.6308116614819994  0.5696980953220034  0.2002207566269973   F   F   F
  0.1307997577402583  0.0696980292959099  0.3456852567722190   T   T   T
  0.6307975590323913  0.0696980012640140  0.3456851606036064   T   T   T
  0.3807969935636482  0.5697045720938457  0.3444370307429538   T   T   T
  0.8807957863527274  0.5697045708283793  0.3444372223595594   T   T   T
  0.3807395250129320  0.0696712973602801  0.4940301098382521   T   T   T
  0.8807383992315054  0.0696716818281489  0.4940225176068114   T   T   T
  0.1307931886508261  0.5696681786869109  0.4858325743114781   T   T   T
  0.6307953842749222  0.5696681920780824  0.4858301035600233   T   T   T
 
  0.00000000E+00  0.00000000E+00  0.00000000E+00
  0.00000000E+00  0.00000000E+00  0.00000000E+00
  0.00000000E+00  0.00000000E+00  0.00000000E+00
  0.00000000E+00  0.00000000E+00  0.00000000E+00
  0.00000000E+00  0.00000000E+00  0.00000000E+00
  0.00000000E+00  0.00000000E+00  0.00000000E+00
  0.00000000E+00  0.00000000E+00  0.00000000E+00
  0.00000000E+00  0.00000000E+00  0.00000000E+00
  0.00000000E+00  0.00000000E+00  0.00000000E+00
  0.00000000E+00  0.00000000E+00  0.00000000E+00
  0.00000000E+00  0.00000000E+00  0.00000000E+00
  0.00000000E+00  0.00000000E+00  0.00000000E+00
  0.00000000E+00  0.00000000E+00  0.00000000E+00
  0.00000000E+00  0.00000000E+00  0.00000000E+00
  0.00000000E+00  0.00000000E+00  0.00000000E+00
  0.00000000E+00  0.00000000E+00  0.00000000E+00
  0.00000000E+00  0.00000000E+00  0.00000000E+00
  0.00000000E+00  0.00000000E+00  0.00000000E+00
  0.00000000E+00  0.00000000E+00  0.00000000E+00
  0.00000000E+00  0.00000000E+00  0.00000000E+00
  0.00000000E+00  0.00000000E+00  0.00000000E+00
  0.00000000E+00  0.00000000E+00  0.00000000E+00
  0.00000000E+00  0.00000000E+00  0.00000000E+00
  0.00000000E+00  0.00000000E+00  0.00000000E+00
  0.00000000E+00  0.00000000E+00  0.00000000E+00
  0.00000000E+00  0.00000000E+00  0.00000000E+00
  0.00000000E+00  0.00000000E+00  0.00000000E+00
  0.00000000E+00  0.00000000E+00  0.00000000E+00
  0.00000000E+00  0.00000000E+00  0.00000000E+00
  0.00000000E+00  0.00000000E+00  0.00000000E+00
  0.00000000E+00  0.00000000E+00  0.00000000E+00
  0.00000000E+00  0.00000000E+00  0.00000000E+00
  0.00000000E+00  0.00000000E+00  0.00000000E+00
  0.00000000E+00  0.00000000E+00  0.00000000E+00
  0.00000000E+00  0.00000000E+00  0.00000000E+00
  0.00000000E+00  0.00000000E+00  0.00000000E+00
  0.00000000E+00  0.00000000E+00  0.00000000E+00
  0.00000000E+00  0.00000000E+00  0.00000000E+00
  0.00000000E+00  0.00000000E+00  0.00000000E+00
  0.00000000E+00  0.00000000E+00  0.00000000E+00
  0.00000000E+00  0.00000000E+00  0.00000000E+00
  0.00000000E+00  0.00000000E+00  0.00000000E+00
  0.00000000E+00  0.00000000E+00  0.00000000E+00
  0.00000000E+00  0.00000000E+00  0.00000000E+00
  0.00000000E+00  0.00000000E+00  0.00000000E+00
  0.00000000E+00  0.00000000E+00  0.00000000E+00
  0.00000000E+00  0.00000000E+00  0.00000000E+00
  0.00000000E+00  0.00000000E+00  0.00000000E+00
