AutoCreatByScript
 1.000000000
    0.00000000     0.00000000     6.42203989
    4.49914758    -4.49914758     0.00000000
   15.54584216    15.54584216     0.00000000
    O   Os
   32   16
Selective Dynamics
Direct
    0.130811661482    0.569698095322    0.000000000000    F   F   F
    0.630811661482    0.569698095322    0.000000000000    F   F   F
    0.380811661482    0.261518095322    0.055514939632    F   F   F
    0.880811661482    0.261518095322    0.055514939632    F   F   F
    0.380811661482    0.877878095322    0.055514939632    F   F   F
    0.880811661482    0.877878095322    0.055514939632    F   F   F
    0.130811661482    0.569698095322    0.111029879264    F   F   F
    0.630811661482    0.569698095322    0.111029879264    F   F   F
    0.130811661482    0.069698095322    0.144705816995    F   F   F
    0.630811661482    0.069698095322    0.144705816995    F   F   F
    0.380811661482    0.377878095322    0.200220756627    F   F   F
    0.880811661482    0.377878095322    0.200220756627    F   F   F
    0.380811661482    0.761518095322    0.200220756627    F   F   F
    0.880811661482    0.761518095322    0.200220756627    F   F   F
    0.130811661482    0.069698095322    0.255735696259    F   F   F
    0.630811661482    0.069698095322    0.255735696259    F   F   F
    0.130811661482    0.569698095322    0.289411633990    T   T   T
    0.630811661482    0.569698095322    0.289411633990    T   T   T
    0.380811661482    0.261518095322    0.344926573622    T   T   T
    0.880811661482    0.261518095322    0.344926573622    T   T   T
    0.380811661482    0.877878095322    0.344926573622    T   T   T
    0.880811661482    0.877878095322    0.344926573622    T   T   T
    0.130811661482    0.569698095322    0.400441513254    T   T   T
    0.630811661482    0.569698095322    0.400441513254    T   T   T
    0.130811661482    0.069698095322    0.434117450985    T   T   T
    0.630811661482    0.069698095322    0.434117450985    T   T   T
    0.380811661482    0.377878095322    0.489632390617    T   T   T
    0.880811661482    0.377878095322    0.489632390617    T   T   T
    0.380811661482    0.761518095322    0.489632390617    T   T   T
    0.880811661482    0.761518095322    0.489632390617    T   T   T
    0.130811661482    0.069698095322    0.545147330249    T   T   T
    0.630811661482    0.069698095322    0.545147330249    T   T   T
    0.130811661482    0.069698095322    0.055514939632    F   F   F
    0.630811661482    0.069698095322    0.055514939632    F   F   F
    0.380811661482    0.569698095322    0.055514939632    F   F   F
    0.880811661482    0.569698095322    0.055514939632    F   F   F
    0.380811661482    0.069698095322    0.200220756627    F   F   F
    0.880811661482    0.069698095322    0.200220756627    F   F   F
    0.130811661482    0.569698095322    0.200220756627    F   F   F
    0.630811661482    0.569698095322    0.200220756627    F   F   F
    0.130811661482    0.069698095322    0.344926573622    T   T   T
    0.630811661482    0.069698095322    0.344926573622    T   T   T
    0.380811661482    0.569698095322    0.344926573622    T   T   T
    0.880811661482    0.569698095322    0.344926573622    T   T   T
    0.380811661482    0.069698095322    0.489632390617    T   T   T
    0.880811661482    0.069698095322    0.489632390617    T   T   T
    0.130811661482    0.569698095322    0.489632390617    T   T   T
    0.630811661482    0.569698095322    0.489632390617    T   T   T
