AutoCreatByScript
 1.000000000
    0.00000000     0.00000000     6.22358237
    4.49629428    -4.49629428     0.00000000
   15.56204978    15.56204978     0.00000000
    O   Ru
   32   16
Selective Dynamics
Direct
    0.339111894369    0.079243193327    0.056115376000    F   F   F
    0.839111894369    0.079243193327    0.056115376000    F   F   F
    0.339111894369    0.467683193327    0.056115376000    F   F   F
    0.839111894369    0.467683193327    0.056115376000    F   F   F
    0.089111894369    0.773463193327    0.112230752000    F   F   F
    0.589111894369    0.773463193327    0.112230752000    F   F   F
    0.089111894369    0.273463193327    0.144463433220    F   F   F
    0.589111894369    0.273463193327    0.144463433220    F   F   F
    0.339111894369    0.579243193327    0.200578809220    F   F   F
    0.839111894369    0.579243193327    0.200578809220    F   F   F
    0.339111894369    0.967683193327    0.200578809220    F   F   F
    0.839111894369    0.967683193327    0.200578809220    F   F   F
    0.089111894369    0.273463193327    0.256694185220    F   F   F
    0.589111894369    0.273463193327    0.256694185220    F   F   F
    0.089111894369    0.773463193327    0.288926866440    T   T   T
    0.589111894369    0.773463193327    0.288926866440    T   T   T
    0.339111894369    0.079243193327    0.345042242440    T   T   T
    0.839111894369    0.079243193327    0.345042242440    T   T   T
    0.339111894369    0.467683193327    0.345042242440    T   T   T
    0.839111894369    0.467683193327    0.345042242440    T   T   T
    0.089111894369    0.773463193327    0.401157618439    T   T   T
    0.589111894369    0.773463193327    0.401157618439    T   T   T
    0.089111894369    0.273463193327    0.433390299659    T   T   T
    0.589111894369    0.273463193327    0.433390299659    T   T   T
    0.339111894369    0.579243193327    0.489505675659    T   T   T
    0.839111894369    0.579243193327    0.489505675659    T   T   T
    0.339111894369    0.967683193327    0.489505675659    T   T   T
    0.839111894369    0.967683193327    0.489505675659    T   T   T
    0.089111894369    0.273463193327    0.545621051659    T   T   T
    0.589111894369    0.273463193327    0.545621051659    T   T   T
    0.089111894369    0.773463193327    1.000000000000    F   F   F
    0.589111894369    0.773463193327    1.000000000000    F   F   F
    0.089111894369    0.273463193327    0.056115376000    F   F   F
    0.589111894369    0.273463193327    0.056115376000    F   F   F
    0.339111894369    0.773463193327    0.056115376000    F   F   F
    0.839111894369    0.773463193327    0.056115376000    F   F   F
    0.339111894369    0.273463193327    0.200578809220    F   F   F
    0.839111894369    0.273463193327    0.200578809220    F   F   F
    0.089111894369    0.773463193327    0.200578809220    F   F   F
    0.589111894369    0.773463193327    0.200578809220    F   F   F
    0.089111894369    0.273463193327    0.345042242440    T   T   T
    0.589111894369    0.273463193327    0.345042242440    T   T   T
    0.339111894369    0.773463193327    0.345042242440    T   T   T
    0.839111894369    0.773463193327    0.345042242440    T   T   T
    0.339111894369    0.273463193327    0.489505675659    T   T   T
    0.839111894369    0.273463193327    0.489505675659    T   T   T
    0.089111894369    0.773463193327    0.489505675659    T   T   T
    0.589111894369    0.773463193327    0.489505675659    T   T   T
