AutoCreatByScript
 1.000000000
    0.00000000     0.00000000     6.86122651
    4.96773739    -4.96773739     0.00000000
   16.43684247    16.43684247     0.00000000
    O   Pb
   32   16
Selective Dynamics
Direct
    0.365914881229    0.054801464081    0.000000000000    F   F   F
    0.865914881229    0.054801464081    0.000000000000    F   F   F
    0.115914881229    0.362141464081    0.058227989191    F   F   F
    0.615914881229    0.362141464081    0.058227989191    F   F   F
    0.115914881229    0.747461464081    0.058227989191    F   F   F
    0.615914881229    0.747461464081    0.058227989191    F   F   F
    0.365914881229    0.054801464081    0.116455978382    F   F   F
    0.865914881229    0.054801464081    0.116455978382    F   F   F
    0.365914881229    0.554801464081    0.151115927517    F   F   F
    0.865914881229    0.554801464081    0.151115927517    F   F   F
    0.115914881229    0.247461464081    0.209343916708    F   F   F
    0.615914881229    0.247461464081    0.209343916708    F   F   F
    0.115914881229    0.862141464081    0.209343916708    F   F   F
    0.615914881229    0.862141464081    0.209343916708    F   F   F
    0.365914881229    0.554801464081    0.267571905899    F   F   F
    0.865914881229    0.554801464081    0.267571905899    F   F   F
    0.365914881229    0.054801464081    0.302231855034    T   T   T
    0.865914881229    0.054801464081    0.302231855034    T   T   T
    0.115914881229    0.362141464081    0.360459844225    T   T   T
    0.615914881229    0.362141464081    0.360459844225    T   T   T
    0.115914881229    0.747461464081    0.360459844225    T   T   T
    0.615914881229    0.747461464081    0.360459844225    T   T   T
    0.365914881229    0.054801464081    0.418687833416    T   T   T
    0.865914881229    0.054801464081    0.418687833416    T   T   T
    0.365914881229    0.554801464081    0.453347782551    T   T   T
    0.865914881229    0.554801464081    0.453347782551    T   T   T
    0.115914881229    0.247461464081    0.511575771742    T   T   T
    0.615914881229    0.247461464081    0.511575771742    T   T   T
    0.115914881229    0.862141464081    0.511575771742    T   T   T
    0.615914881229    0.862141464081    0.511575771742    T   T   T
    0.365914881229    0.554801464081    0.569803760933    T   T   T
    0.865914881229    0.554801464081    0.569803760933    T   T   T
    0.115914881229    0.054801464081    0.058227989191    F   F   F
    0.615914881229    0.054801464081    0.058227989191    F   F   F
    0.365914881229    0.554801464081    0.058227989191    F   F   F
    0.865914881229    0.554801464081    0.058227989191    F   F   F
    0.365914881229    0.054801464081    0.209343916708    F   F   F
    0.865914881229    0.054801464081    0.209343916708    F   F   F
    0.115914881229    0.554801464081    0.209343916708    F   F   F
    0.615914881229    0.554801464081    0.209343916708    F   F   F
    0.115914881229    0.054801464081    0.360459844225    T   T   T
    0.615914881229    0.054801464081    0.360459844225    T   T   T
    0.365914881229    0.554801464081    0.360459844225    T   T   T
    0.865914881229    0.554801464081    0.360459844225    T   T   T
    0.365914881229    0.054801464081    0.511575771742    T   T   T
    0.865914881229    0.054801464081    0.511575771742    T   T   T
    0.115914881229    0.554801464081    0.511575771742    T   T   T
    0.615914881229    0.554801464081    0.511575771742    T   T   T
