AutoCreatByScript                       
   1.00000000000000     
     0.0000000000000000    0.0000000000000000    5.8446793799999996
     4.4684765999999998   -4.4684765999999998    0.0000000000000000
    15.5063004600000003   15.5063004600000003    0.0000000000000000
   H    C    O    Ge   Ir
     4     1    32    15     1
Selective dynamics
Direct
  0.6312985062082329  0.3628697556336954  0.5538323066241861   T   T   T
  0.6335284237576960  0.7246767888361579  0.5996780431038600   T   T   T
  0.4742392718784670  0.4892071659477224  0.6168113726497648   T   T   T
  0.7829897248875640  0.4845727810331141  0.6175906606898185   T   T   T
  0.6304666617625084  0.5513789531469270  0.5956236101125085   T   T   T
  1.1308116614819994  0.5696980953220032  0.9999999999999999   F   F   F
  0.6308116614819994  0.5696980953220032  0.9999999999999999   F   F   F
  0.3808116614819994  0.2635580953219971  0.0558649612089965   F   F   F
  0.8808116614819994  0.2635580953219971  0.0558649612089965   F   F   F
  0.3808116614819994 -0.1241619046779987  0.0558649612089963   F   F   F
  0.8808116614819994 -0.1241619046779987  0.0558649612089963   F   F   F
  1.1308116614819994  0.5696980953220033  0.1117299224169983   F   F   F
  0.6308116614819994  0.5696980953220033  0.1117299224169983   F   F   F
  1.1308116614819994  0.0696980953220034  0.1440858382559966   F   F   F
  0.6308116614819994  0.0696980953220034  0.1440858382559966   F   F   F
  0.3808116614819994  0.3758380953220026  0.1999507994639984   F   F   F
  0.8808116614819994  0.3758380953220026  0.1999507994639984   F   F   F
  0.3808116614819994  0.7635580953219970  0.1999507994639984   F   F   F
  0.8808116614819994  0.7635580953219970  0.1999507994639984   F   F   F
  1.1308116614819994  0.0696980953220034  0.2558157606730020   F   F   F
  0.6308116614819994  0.0696980953220034  0.2558157606730020   F   F   F
  1.1307803381329575  0.5630647717881435  0.2878489974898308   T   T   T
  0.6307771708599763  0.5624708465151591  0.2872638686788259   T   T   T
  0.3807149192683508  0.2609619209930777  0.3468977486172347   T   T   T
  0.8807816035817475  0.2609629154537810  0.3468875732300417   T   T   T
  0.3816581027218605 -0.1282301639117668  0.3414844310921134   T   T   T
  0.8798847044196204 -0.1282377697541813  0.3415023137608274   T   T   T
  1.1307976276048186  0.5795275161221345  0.3970479152756481   T   T   T
  0.6307685325250750  0.5769084623687555  0.4000701428686701   T   T   T
  1.1308199201469502  0.0398858474321451  0.4332653337058868   T   T   T
  0.6307688343010970  0.0452443090135306  0.4349380242182194   T   T   T
  0.3620551852921966  0.3647474276397402  0.4859735447348675   T   T   T
  0.8995707976522404  0.3647131643164523  0.4859389018069155   T   T   T
  0.3685297137302654  0.7456439163626352  0.5018062134253948   T   T   T
  0.8930737969348861  0.7455780122818919  0.5017992159208347   T   T   T
  1.1307713988473467  0.0701094130783123  0.5476880247821561   T   T   T
  0.6308784827865018  0.0910667330161327  0.5471706050901317   T   T   T
  1.1308116614819994  0.0696980953220034  0.0558649612089965   F   F   F
  0.6308116614819994  0.0696980953220034  0.0558649612089965   F   F   F
  0.3808116614819994  0.5696980953220034  0.0558649612089965   F   F   F
  0.8808116614819994  0.5696980953220034  0.0558649612089965   F   F   F
  0.3808116614819994  0.0696980953220034  0.1999507994639984   F   F   F
  0.8808116614819994  0.0696980953220034  0.1999507994639984   F   F   F
  1.1308116614819994  0.5696980953220034  0.1999507994639984   F   F   F
  0.6308116614819994  0.5696980953220034  0.1999507994639984   F   F   F
  1.1307601294311405  0.0639886591874419  0.3456951578225230   T   T   T
  0.6307547441572009  0.0645223129994169  0.3467230023199790   T   T   T
  0.3846991674191556  0.5669869235174751  0.3425745678864146   T   T   T
  0.8768643594061333  0.5669677911593355  0.3425733319280939   T   T   T
  0.3777697119808965  0.0567155408074523  0.4944946433042771   T   T   T
  0.8838595254721564  0.0567489529763600  0.4944561203716552   T   T   T
  1.1308206486891235  0.5661069195626470  0.4794245277668807   T   T   T
  0.6308210050559179  0.5461887558177666  0.4965357217537421   T   T   T
 
  0.00000000E+00  0.00000000E+00  0.00000000E+00
  0.00000000E+00  0.00000000E+00  0.00000000E+00
  0.00000000E+00  0.00000000E+00  0.00000000E+00
  0.00000000E+00  0.00000000E+00  0.00000000E+00
  0.00000000E+00  0.00000000E+00  0.00000000E+00
  0.00000000E+00  0.00000000E+00  0.00000000E+00
  0.00000000E+00  0.00000000E+00  0.00000000E+00
  0.00000000E+00  0.00000000E+00  0.00000000E+00
  0.00000000E+00  0.00000000E+00  0.00000000E+00
  0.00000000E+00  0.00000000E+00  0.00000000E+00
  0.00000000E+00  0.00000000E+00  0.00000000E+00
  0.00000000E+00  0.00000000E+00  0.00000000E+00
  0.00000000E+00  0.00000000E+00  0.00000000E+00
  0.00000000E+00  0.00000000E+00  0.00000000E+00
  0.00000000E+00  0.00000000E+00  0.00000000E+00
  0.00000000E+00  0.00000000E+00  0.00000000E+00
  0.00000000E+00  0.00000000E+00  0.00000000E+00
  0.00000000E+00  0.00000000E+00  0.00000000E+00
  0.00000000E+00  0.00000000E+00  0.00000000E+00
  0.00000000E+00  0.00000000E+00  0.00000000E+00
  0.00000000E+00  0.00000000E+00  0.00000000E+00
  0.00000000E+00  0.00000000E+00  0.00000000E+00
  0.00000000E+00  0.00000000E+00  0.00000000E+00
  0.00000000E+00  0.00000000E+00  0.00000000E+00
  0.00000000E+00  0.00000000E+00  0.00000000E+00
  0.00000000E+00  0.00000000E+00  0.00000000E+00
  0.00000000E+00  0.00000000E+00  0.00000000E+00
  0.00000000E+00  0.00000000E+00  0.00000000E+00
  0.00000000E+00  0.00000000E+00  0.00000000E+00
  0.00000000E+00  0.00000000E+00  0.00000000E+00
  0.00000000E+00  0.00000000E+00  0.00000000E+00
  0.00000000E+00  0.00000000E+00  0.00000000E+00
  0.00000000E+00  0.00000000E+00  0.00000000E+00
  0.00000000E+00  0.00000000E+00  0.00000000E+00
  0.00000000E+00  0.00000000E+00  0.00000000E+00
  0.00000000E+00  0.00000000E+00  0.00000000E+00
  0.00000000E+00  0.00000000E+00  0.00000000E+00
  0.00000000E+00  0.00000000E+00  0.00000000E+00
  0.00000000E+00  0.00000000E+00  0.00000000E+00
  0.00000000E+00  0.00000000E+00  0.00000000E+00
  0.00000000E+00  0.00000000E+00  0.00000000E+00
  0.00000000E+00  0.00000000E+00  0.00000000E+00
  0.00000000E+00  0.00000000E+00  0.00000000E+00
  0.00000000E+00  0.00000000E+00  0.00000000E+00
  0.00000000E+00  0.00000000E+00  0.00000000E+00
  0.00000000E+00  0.00000000E+00  0.00000000E+00
  0.00000000E+00  0.00000000E+00  0.00000000E+00
  0.00000000E+00  0.00000000E+00  0.00000000E+00
  0.00000000E+00  0.00000000E+00  0.00000000E+00
  0.00000000E+00  0.00000000E+00  0.00000000E+00
  0.00000000E+00  0.00000000E+00  0.00000000E+00
  0.00000000E+00  0.00000000E+00  0.00000000E+00
  0.00000000E+00  0.00000000E+00  0.00000000E+00
