AutoCreatByScript                       
   1.00000000000000     
     0.0000000000000000    0.0000000000000000    5.8446793799999996
     4.4684765999999998   -4.4684765999999998    0.0000000000000000
    15.5063004600000003   15.5063004600000003    0.0000000000000000
   H    C    O    Ge   Ir
     4     1    32    15     1
Selective dynamics
Direct
  0.6314727226088211  0.3610553214202135  0.5540998277640699   T   T   T
  0.6317812419347971  0.7224744764836449  0.6002044041808392   T   T   T
  0.4727762425740386  0.4869747088214124  0.6171109507780979   T   T   T
  0.7814292728193865  0.4827913262849201  0.6182117032983685   T   T   T
  0.6291589114614322  0.5492188926431172  0.5959893078416751   T   T   T
  1.1308116614819994  0.5696980953220032  0.9999999999999999   F   F   F
  0.6308116614819994  0.5696980953220032  0.9999999999999999   F   F   F
  0.3808116614819994  0.2635580953219969  1.0558649612089952   F   F   F
  0.8808116614819994  0.2635580953219969  1.0558649612089952   F   F   F
  0.3808116614819994 -0.1241619046779974  1.0558649612089952   F   F   F
  0.8808116614819994 -0.1241619046779974  1.0558649612089952   F   F   F
  1.1308116614819994  0.5696980953220033  0.1117299224169983   F   F   F
  0.6308116614819994  0.5696980953220033  0.1117299224169983   F   F   F
  1.1308116614819994  0.0696980953220034  0.1440858382559966   F   F   F
  0.6308116614819994  0.0696980953220034  0.1440858382559966   F   F   F
  0.3808116614819994  0.3758380953220026  0.1999507994639984   F   F   F
  0.8808116614819994  0.3758380953220026  0.1999507994639984   F   F   F
  0.3808116614819994 -0.2364419046780029  0.1999507994639983   F   F   F
  0.8808116614819994 -0.2364419046780029  0.1999507994639983   F   F   F
  1.1308116614819994  0.0696980953220034  0.2558157606730020   F   F   F
  0.6308116614819994  0.0696980953220034  0.2558157606730020   F   F   F
  1.1308228286345881  0.5631331927950144  0.2878635556805372   T   T   T
  0.6308351229973289  0.5625186619911673  0.2872968182268144   T   T   T
  0.3808090847677764  0.2611389617076293  0.3469006396971310   T   T   T
  0.8808184951164484  0.2611061354622755  0.3468927003659610   T   T   T
  0.3817443228395791 -0.1280629430347918  0.3415083948576269   T   T   T
  0.8799489019944161 -0.1280951227720127  0.3415293973891879   T   T   T
  1.1308882307889812  0.5794493348785734  0.3970604810592253   T   T   T
  0.6308198309622081  0.5769386668957457  0.4001521429706527   T   T   T
  1.1308981874576458  0.0401403786238512  0.4332100704510637   T   T   T
  0.6308474598572944  0.0454831537964370  0.4349300755874533   T   T   T
  0.3622023867834880  0.3650410543264024  0.4860196777763601   T   T   T
  0.8997433737001002  0.3650312929229466  0.4859702294581316   T   T   T
  0.3685013003175083 -0.2539895936576438  0.5018575394611532   T   T   T
  0.8927219229212029 -0.2540523889678270  0.5017569792776770   T   T   T
  1.1308618359214537  0.0703434635985203  0.5476304689653619   T   T   T
  0.6309650766585789  0.0922194166287224  0.5471532454926977   T   T   T
  1.1308116614819994  0.0696980953220032  1.0558649612089965   F   F   F
  0.6308116614819994  0.0696980953220032  1.0558649612089965   F   F   F
  0.3808116614819994  0.5696980953220034  1.0558649612089952   F   F   F
  0.8808116614819994  0.5696980953220034  1.0558649612089952   F   F   F
  0.3808116614819994  0.0696980953220034  0.1999507994639984   F   F   F
  0.8808116614819994  0.0696980953220034  0.1999507994639984   F   F   F
  1.1308116614819994  0.5696980953220034  0.1999507994639984   F   F   F
  0.6308116614819994  0.5696980953220034  0.1999507994639984   F   F   F
  1.1308317010628774  0.0642045684556652  0.3456414391444209   T   T   T
  0.6308254576483459  0.0647074434692615  0.3466744143796245   T   T   T
  0.3847850723453372  0.5671720859021077  0.3426049455289011   T   T   T
  0.8769042263258437  0.5671176286111919  0.3426127946458686   T   T   T
  0.3777685590425922  0.0568865352867605  0.4944234538297601   T   T   T
  0.8840443440377355  0.0572337264337079  0.4943765785714577   T   T   T
  0.1308192728562388  0.5664637577896184  0.4794432915894791   T   T   T
  0.6307644110395220  0.5463394651531027  0.4966709818108098   T   T   T
 
  0.00000000E+00  0.00000000E+00  0.00000000E+00
  0.00000000E+00  0.00000000E+00  0.00000000E+00
  0.00000000E+00  0.00000000E+00  0.00000000E+00
  0.00000000E+00  0.00000000E+00  0.00000000E+00
  0.00000000E+00  0.00000000E+00  0.00000000E+00
  0.00000000E+00  0.00000000E+00  0.00000000E+00
  0.00000000E+00  0.00000000E+00  0.00000000E+00
  0.00000000E+00  0.00000000E+00  0.00000000E+00
  0.00000000E+00  0.00000000E+00  0.00000000E+00
  0.00000000E+00  0.00000000E+00  0.00000000E+00
  0.00000000E+00  0.00000000E+00  0.00000000E+00
  0.00000000E+00  0.00000000E+00  0.00000000E+00
  0.00000000E+00  0.00000000E+00  0.00000000E+00
  0.00000000E+00  0.00000000E+00  0.00000000E+00
  0.00000000E+00  0.00000000E+00  0.00000000E+00
  0.00000000E+00  0.00000000E+00  0.00000000E+00
  0.00000000E+00  0.00000000E+00  0.00000000E+00
  0.00000000E+00  0.00000000E+00  0.00000000E+00
  0.00000000E+00  0.00000000E+00  0.00000000E+00
  0.00000000E+00  0.00000000E+00  0.00000000E+00
  0.00000000E+00  0.00000000E+00  0.00000000E+00
  0.00000000E+00  0.00000000E+00  0.00000000E+00
  0.00000000E+00  0.00000000E+00  0.00000000E+00
  0.00000000E+00  0.00000000E+00  0.00000000E+00
  0.00000000E+00  0.00000000E+00  0.00000000E+00
  0.00000000E+00  0.00000000E+00  0.00000000E+00
  0.00000000E+00  0.00000000E+00  0.00000000E+00
  0.00000000E+00  0.00000000E+00  0.00000000E+00
  0.00000000E+00  0.00000000E+00  0.00000000E+00
  0.00000000E+00  0.00000000E+00  0.00000000E+00
  0.00000000E+00  0.00000000E+00  0.00000000E+00
  0.00000000E+00  0.00000000E+00  0.00000000E+00
  0.00000000E+00  0.00000000E+00  0.00000000E+00
  0.00000000E+00  0.00000000E+00  0.00000000E+00
  0.00000000E+00  0.00000000E+00  0.00000000E+00
  0.00000000E+00  0.00000000E+00  0.00000000E+00
  0.00000000E+00  0.00000000E+00  0.00000000E+00
  0.00000000E+00  0.00000000E+00  0.00000000E+00
  0.00000000E+00  0.00000000E+00  0.00000000E+00
  0.00000000E+00  0.00000000E+00  0.00000000E+00
  0.00000000E+00  0.00000000E+00  0.00000000E+00
  0.00000000E+00  0.00000000E+00  0.00000000E+00
  0.00000000E+00  0.00000000E+00  0.00000000E+00
  0.00000000E+00  0.00000000E+00  0.00000000E+00
  0.00000000E+00  0.00000000E+00  0.00000000E+00
  0.00000000E+00  0.00000000E+00  0.00000000E+00
  0.00000000E+00  0.00000000E+00  0.00000000E+00
  0.00000000E+00  0.00000000E+00  0.00000000E+00
  0.00000000E+00  0.00000000E+00  0.00000000E+00
  0.00000000E+00  0.00000000E+00  0.00000000E+00
  0.00000000E+00  0.00000000E+00  0.00000000E+00
  0.00000000E+00  0.00000000E+00  0.00000000E+00
  0.00000000E+00  0.00000000E+00  0.00000000E+00
