SYSTEM = RhO2_suf110_2x1x4_2fix 
ISYM = 0
ISTART = 0              ! 0 = new job, 1 = restart
ISPIN  = 2              ! spin polarisation 1 = no 2 = yes

PREC   = Accurate       ! [Low/Medium/High/Normal/Accurate]

ENCUT  = 500            ! energy cutoff
#EDIFF  = 1.0E-5 ! [Global break cond. for the elec. SC-loop] Energy
NELMIN = 3        # iterations in SC loop
NELM   =  300 ! max iteraci v SC loop
ISMEAR = 0; SIGMA = 0.05  #-5 for accurate total energy and DOS 0 for large cell 1 for metal
LREAL = A    ! aproximace, T zpomaluje, ale presnejsi
NCORE   = 6       ! adjust to number of processors;  best on berni up to 8 CPUs
!IALGO  = 38      ! RMM-DIIS algorithm for electrons (Davidson: 38)

ALGO=Fast

!MAGMOM = 

NWRITE = 2       ! how much is written out
LCHARG = .False.! write restart charge file
LWAVE  = .False.  ! write restart wf file

IBRION= 2        ! 0 MD 1 Brodyn (opt,TS) 2 CG (opt)  3 damped MD(opt) 5  FC 
POTIM=0.1        ! ion step size/ time step (fs) for MD
EDIFFG = -0.05  ! convergence criterion for forces
NSW = 1000        ! max # steps
ISIF = 2       ! [Stress tensor, 0 = not, 3 = relax latt+ions] p. 60

# PBE+D3
IVDW = 12
VDW_s6 = 1.0 !s6-scaling parameter (should be kept fix at 1.0)
VDW_s8 = 0.7875 ! s8-scaling factor
VDW_a1 = 0.4289! scaling for damping function
VDW_a2 = 4.4407 ! scaling for damping function

# BEEF
!GGA = BF
!LUSE_VDW = .TRUE.
!Zab_VDW = -1.8867
!LBEEFENS = .TRUE.

#HSE06
!TIME=0.5
!LHFCALC=.TRUE.
!HFSCREEN=0.2
!PRECFOCK=A
!LMAXFOCK=4 #4 for s/p, 6 for f

# DFT+U
!LDAU= T
!LDAUTYPE= 2
!LDAUL = -1   -1  
!LDAUU = 0.0  0.0 
!LDAUJ = 0.0  0.0 

